#
# CELL written by cell_write: Keith Refson, Oct 2006
#
%BLOCK lattice_cart
   ang
       7.59664334057630        0.00000000000000       0.727349045661067E-01
       0.00000000000000        7.02825123152905        0.00000000000000    
     -0.828027204732291        0.00000000000000        5.04519361068421    
%ENDBLOCK lattice_cart

%BLOCK cell_constraints
      1   2   3
      0   5   0
%ENDBLOCK cell_constraints

%BLOCK positions_frac
   H              0.212236052198639       0.008629570215187       0.332875241424999
   H              0.787763947801361       0.508629570215186       0.667124758575001
   H              0.799634967479198       0.809274451546997       0.461441296463942
   H              0.200365032520801       0.309274451546997       0.538558703536059
   H              0.701889738259802       0.830609185299260       0.126992491136147
   H              0.298110261740198       0.330609185299260       0.873007508863853
   H              0.612365997041264       0.157190663882155       0.968385766630534
   H              0.387634002958735       0.657190663882155       0.031614233369467
   H              0.607508731549428       0.341279638909710       0.185888438415370
   H              0.392491268450572       0.841279638909711       0.814111561584630
   H              0.801115495083245       0.274496168498431       0.091065922407880
   H              0.198884504916756       0.774496168498431       0.908934077592120
   H              0.791122504886788       0.152869187696814       0.525292310681103
   H              0.208877495113212       0.652869187696814       0.474707689318898
   C              0.525080079965967       0.042272588838284       0.447910786726638
   C              0.474919920034035       0.542272588838284       0.552089213273362
   C              0.704879958689604       0.086294007138230       0.361892971670589
   C              0.295120041310397       0.586294007138230       0.638107028329410
   C              0.787022411301129       0.901461680738153       0.287993452442326
   C              0.212977588698872       0.401461680738152       0.712006547557673
   C              0.969762614446074       0.915730261074458       0.212428569046923
   C              0.030237385553925       0.415730261074457       0.787571430953077
   N              0.680069538998844       0.222795449633814       0.137533238928928
   N              0.319930461001155       0.722795449633813       0.862466761071071
   O              0.395420376908508       0.031082350755494       0.267617974675822
   O              0.604579623091492       0.531082350755495       0.732382025324177
   O              0.523881829040404       0.015055686850750       0.687344469526048
   O              0.476118170959598       0.515055686850749       0.312655530473953
   O              1.002365348493083       0.848408934222516       0.007360546364820
   O             -0.002365348493083       0.348408934222518       0.992639453635180
   O              0.085124255395411      -0.001349825300272       0.389517484457104
   O              0.914875744604589       0.498650174699728       0.610482515542895
%ENDBLOCK positions_frac

FIX_COM : true

%BLOCK species_pot
   H       /home/ufaserv1_a/eenadbu/Pseudopotentials/MS/H_00.recpot
   C       /home/ufaserv1_a/eenadbu/Pseudopotentials/MS/C_00.recpot
   N       /home/ufaserv1_a/eenadbu/Pseudopotentials/MS/N_00.recpot
   O       /home/ufaserv1_a/eenadbu/Pseudopotentials/RB/o-optgga1.recpot
%ENDBLOCK species_pot

SYMMETRY_TOL :     0.001000

%BLOCK symmetry_ops
# Symm. op. 1       E
          1.000000000000000       0.000000000000000       0.000000000000000
          0.000000000000000       1.000000000000000       0.000000000000000
          0.000000000000000       0.000000000000000       1.000000000000000
          0.000000000000000       0.000000000000000       0.000000000000000
# Symm. op. 2     2_1
         -1.000000000000000       0.000000000000000      -0.000000000000000
          0.000000000000000       1.000000000000000       0.000000000000000
          0.000000000000000       0.000000000000000      -1.000000000000000
         -0.000000000000000       0.500000000000000      -0.000000000000000
%ENDBLOCK symmetry_ops

kpoint_mp_grid :    2   2   2

phonon_kpoint_mp_grid :    1   1   1

