Generated by cif2cell 1.2.10 from COD reference: 9000534.  :  Hazen, R. M., American Mineralogist 61, 1280-1293 (1976). Species order: Si Mg O 
   4.746000
  1.000000000000000   0.000000000000000   0.000000000000000
  0.000000000000000   2.144964180362410   0.000000000000000
  0.000000000000000   0.000000000000000   1.259165613147914
   4   8  16
Direct
  0.426100000000000   0.093900000000000   0.250000000000000 
  0.573900000000000   0.906100000000000   0.750000000000000 
  0.073900000000000   0.593900000000000   0.250000000000000 
  0.926100000000000   0.406100000000000   0.750000000000000 
  0.000000000000000   0.000000000000000   0.000000000000000 
  0.000000000000000   0.000000000000000   0.500000000000000 
  0.500000000000000   0.500000000000000   0.500000000000000 
  0.500000000000000   0.500000000000000   0.000000000000000 
  0.991400000000000   0.277200000000000   0.250000000000000 
  0.008600000000000   0.722800000000000   0.750000000000000 
  0.508600000000000   0.777200000000000   0.250000000000000 
  0.491400000000000   0.222800000000000   0.750000000000000 
  0.766100000000000   0.091900000000000   0.250000000000000 
  0.233900000000000   0.908100000000000   0.750000000000000 
  0.733900000000000   0.591900000000000   0.250000000000000 
  0.266100000000000   0.408100000000000   0.750000000000000 
  0.220200000000000   0.446900000000000   0.250000000000000 
  0.779800000000000   0.553100000000000   0.750000000000000 
  0.279800000000000   0.946900000000000   0.250000000000000 
  0.720200000000000   0.053100000000000   0.750000000000000 
  0.277700000000000   0.162800000000000   0.033300000000000 
  0.722300000000000   0.837200000000000   0.533300000000000 
  0.222300000000000   0.662800000000000   0.466700000000000 
  0.722300000000000   0.837200000000000   0.966700000000000 
  0.222300000000000   0.662800000000000   0.033300000000000 
  0.277700000000000   0.162800000000000   0.466700000000000 
  0.777700000000000   0.337200000000000   0.533300000000000 
  0.777700000000000   0.337200000000000   0.966700000000000 
