Generated by cif2cell 1.2.10.  :  Failed
   4.1897659999999997     
     0.5773642249991829    0.0000000000000072    2.4768699160968874
    -0.2886821124995912    0.5000120860854242    2.4768699160968874
    -0.2886821124995912   -0.5000120860854250    2.4768699160968874
   Bi   Se
     2     3
Direct
  0.3959953176245321  0.3959953176245321  0.3959953176245321
  0.6040046823752263  0.6040046823752263  0.6040046823752263
  0.7795696116327733  0.7795696116327733  0.7795696116327733
  0.2204303883673475  0.2204303883673475  0.2204303883673475
  0.0000000000000000  0.0000000000000000  0.0000000000000000

  0.00000000E+00  0.00000000E+00  0.00000000E+00
  0.00000000E+00  0.00000000E+00  0.00000000E+00
  0.00000000E+00  0.00000000E+00  0.00000000E+00
  0.00000000E+00  0.00000000E+00  0.00000000E+00
  0.00000000E+00  0.00000000E+00  0.00000000E+00
