Generated by cif2cell 1.2.10. k-space resolution ~0.2/A
 0
Gamma
9 9 9
0 0 0
