Generated by cif2cell 1.1.0. k-space resolution ~0.2/A
 0
Gamma
4 4 5
0 0 0
