Generated by cif2cell 1.1.0.  :  Failed 
   9.37160000000000     
     0.8729601893075745   -0.5040038001977785    0.0000000000000000
    -0.0000000000786144    1.0080076005317211    0.0000000000000000
     0.0000000000000000    0.0000000000000000    0.7390192331266765
   O    P    Ca   F 
    24     6    10     2
Direct
  0.3263972434840176  0.4847346211505075  0.2500000000000000
  0.4847346211505075  0.1583373776664758  0.7500000000000000
  0.8416626223335248  0.3263972434840176  0.7500000000000000
  0.1583373776664758  0.6736027565159823  0.2500000000000000
  0.5152653788494923  0.8416626223335248  0.2500000000000000
  0.6736027565159823  0.5152653788494923  0.7500000000000000
  0.5883426118227789  0.4664575313077980  0.2500000000000000
  0.4664575313077980  0.8781149194850265  0.7500000000000000
  0.1218850805149733  0.5883426118227789  0.7500000000000000
  0.8781149194850265  0.4116573881772218  0.2500000000000000
  0.5335424686922025  0.1218850805149733  0.2500000000000000
  0.4116573881772218  0.5335424686922025  0.7500000000000000
  0.3406093516984357  0.2557880660355136  0.0696862123563428
  0.2557880660355136  0.9151787143370853  0.5696862123563422
  0.3406093516984357  0.2557880660355136  0.4303137876436571
  0.0848212856629153  0.3406093516984357  0.5696862123563422
  0.9151787143370853  0.6593906483015640  0.4303137876436571
  0.0848212856629153  0.3406093516984357  0.9303137876436578
  0.7442119339644864  0.0848212856629153  0.4303137876436571
  0.7442119339644864  0.0848212856629153  0.0696862123563428
  0.2557880660355136  0.9151787143370853  0.9303137876436578
  0.6593906483015640  0.7442119339644864  0.5696862123563422
  0.6593906483015640  0.7442119339644864  0.9303137876436578
  0.9151787143370853  0.6593906483015640  0.0696862123563428
  0.3976821352026237  0.3684183203699342  0.2500000000000000
  0.3684183203699342  0.9707361851673175  0.7500000000000000
  0.0292638148326822  0.3976821352026237  0.7500000000000000
  0.9707361851673175  0.6023178647973764  0.2500000000000000
  0.6315816796300655  0.0292638148326822  0.2500000000000000
  0.6023178647973764  0.6315816796300655  0.7500000000000000
  0.3333333333333357  0.6666666666666643  0.0008048465342425
  0.6666666666666643  0.3333333333333357  0.5008048465342420
  0.3333333333333357  0.6666666666666643  0.4991951534657573
  0.6666666666666643  0.3333333333333357  0.9991951534657580
  0.2433629183874780  0.9962596720222906  0.2500000000000000
  0.9962596720222906  0.7528967536348057  0.7500000000000000
  0.2471032463651941  0.2433629183874780  0.7500000000000000
  0.7528967536348057  0.7566370816125223  0.2500000000000000
  0.0037403279777090  0.2471032463651941  0.2500000000000000
  0.7566370816125223  0.0037403279777090  0.7500000000000000
 -0.0000000000000000 -0.0000000000000000  0.2500000000000000
 -0.0000000000000000 -0.0000000000000000  0.7500000000000000
 
  0.00000000E+00  0.00000000E+00  0.00000000E+00
  0.00000000E+00  0.00000000E+00  0.00000000E+00
  0.00000000E+00  0.00000000E+00  0.00000000E+00
  0.00000000E+00  0.00000000E+00  0.00000000E+00
  0.00000000E+00  0.00000000E+00  0.00000000E+00
  0.00000000E+00  0.00000000E+00  0.00000000E+00
  0.00000000E+00  0.00000000E+00  0.00000000E+00
  0.00000000E+00  0.00000000E+00  0.00000000E+00
  0.00000000E+00  0.00000000E+00  0.00000000E+00
  0.00000000E+00  0.00000000E+00  0.00000000E+00
  0.00000000E+00  0.00000000E+00  0.00000000E+00
  0.00000000E+00  0.00000000E+00  0.00000000E+00
  0.00000000E+00  0.00000000E+00  0.00000000E+00
  0.00000000E+00  0.00000000E+00  0.00000000E+00
  0.00000000E+00  0.00000000E+00  0.00000000E+00
  0.00000000E+00  0.00000000E+00  0.00000000E+00
  0.00000000E+00  0.00000000E+00  0.00000000E+00
  0.00000000E+00  0.00000000E+00  0.00000000E+00
  0.00000000E+00  0.00000000E+00  0.00000000E+00
  0.00000000E+00  0.00000000E+00  0.00000000E+00
  0.00000000E+00  0.00000000E+00  0.00000000E+00
  0.00000000E+00  0.00000000E+00  0.00000000E+00
  0.00000000E+00  0.00000000E+00  0.00000000E+00
  0.00000000E+00  0.00000000E+00  0.00000000E+00
  0.00000000E+00  0.00000000E+00  0.00000000E+00
  0.00000000E+00  0.00000000E+00  0.00000000E+00
  0.00000000E+00  0.00000000E+00  0.00000000E+00
  0.00000000E+00  0.00000000E+00  0.00000000E+00
  0.00000000E+00  0.00000000E+00  0.00000000E+00
  0.00000000E+00  0.00000000E+00  0.00000000E+00
  0.00000000E+00  0.00000000E+00  0.00000000E+00
  0.00000000E+00  0.00000000E+00  0.00000000E+00
  0.00000000E+00  0.00000000E+00  0.00000000E+00
  0.00000000E+00  0.00000000E+00  0.00000000E+00
  0.00000000E+00  0.00000000E+00  0.00000000E+00
  0.00000000E+00  0.00000000E+00  0.00000000E+00
  0.00000000E+00  0.00000000E+00  0.00000000E+00
  0.00000000E+00  0.00000000E+00  0.00000000E+00
  0.00000000E+00  0.00000000E+00  0.00000000E+00
  0.00000000E+00  0.00000000E+00  0.00000000E+00
  0.00000000E+00  0.00000000E+00  0.00000000E+00
  0.00000000E+00  0.00000000E+00  0.00000000E+00
