# CELL file written 23:49:10 (GMT+1.0) 12th August 2024 from run optimisation

%BLOCK lattice_cart
   ANG
       4.78000000977421        0.00000000000000        0.00000000000000    
     -0.719772267391988        5.52834089128027        0.00000000000000    
      -1.40506055770394       -1.44648231355539        5.74750162222530    
%ENDBLOCK lattice_cart

%BLOCK cell_constraints
      0   0   0
      0   0   0
%ENDBLOCK cell_constraints

%BLOCK positions_frac
   O                0.589613135140516       0.039181834300102       0.416466373437170
   O                0.410386864859485       0.960818165699898       0.583533626562830
   O                0.781275128670140       0.890784883749097       0.107483201154810
   O                0.218724871329860       0.109215116250904       0.892516798845190
   O                0.315739225519834       0.650224933636944       0.122047103953973
   O                0.684260774480166       0.349775066363056       0.877952896046027
   O                0.772477566206857       0.634494937705909       0.393093607002252
   O                0.227522433793143       0.365505062294091       0.606906392997748
   Na               0.034164587114085       0.314074059962408       0.208139500326454
   Na               0.965835412885916       0.685925940037593       0.791860499673546
   S                0.614679065072185       0.776770386784293       0.245829174286429
   S                0.385320934927815       0.223229613215708       0.754170825713571
%ENDBLOCK positions_frac

FIX_COM : true

%BLOCK species_pot
   O         2|1.2|23|26|31|20NN:21NN(qc=9)
   Na        2|1.5|20|23|26|20N:30N:21N(qc=8)
   S         1|1.8|6|7|8|30N:31L:32N
%ENDBLOCK species_pot

SYMMETRY_TOL :     0.001000

%BLOCK symmetry_ops
# Symm. op. 1       E
          1.000000000000000       0.000000000000000       0.000000000000000
          0.000000000000000       1.000000000000000       0.000000000000000
         -0.000000000000000      -0.000000000000000       1.000000000000000
          0.000000000000000       0.000000000000000       0.000000000000000
# Symm. op. 2       I
         -1.000000000000000       0.000000000000000       0.000000000000000
          0.000000000000000      -1.000000000000000       0.000000000000000
          0.000000000000000       0.000000000000000      -1.000000000000000
          0.000000000000000       0.000000000000000       0.000000000000000
%ENDBLOCK symmetry_ops

kpoint_mp_grid :    7   6   5

phonon_kpoint_mp_grid :    1   1   1

%BLOCK phonon_gamma_directions
         1.00000000      0.00000000      0.00000000
         0.00000000      1.00000000      0.00000000
         0.00000000      0.00000000      1.00000000
%ENDBLOCK phonon_gamma_directions

