#
# CELL written by cell_write: Keith Refson, Oct 2006
#
%BLOCK lattice_cart
   ANG
       9.67204767237980        0.00000000000000       0.117437561412337    
       0.00000000000000        5.27175092420156        0.00000000000000    
      -1.32784875020856        0.00000000000000        13.9182075159466    
%ENDBLOCK lattice_cart

%BLOCK cell_constraints
      1   2   3
      0   5   0
%ENDBLOCK cell_constraints

%BLOCK positions_frac
   H              0.296252023651474       0.629900146738096       0.396910080403416
   H              0.703747976348525       0.129900146738095       0.603089919596585
   H              0.470346904217997       0.702571880019100       0.414638421767748
   H              0.529653095782003       0.202571880019099       0.585361578232253
   H              0.355734038918028       0.808557150938030       0.490805640162302
   H              0.644265961081971       0.308557150938029       0.509194359837700
   H              0.426806270622518       0.140321098379194       0.392737423533740
   H              0.573193729377480       0.640321098379194       0.607262576466260
   H              0.445656324424914       0.836678186305222       0.253092985612918
   H              0.554343675575084       0.336678186305224       0.746907014387084
   H              0.329619860295717       0.365672854707634       0.225669511796858
   H              0.670380139704282       0.865672854707632       0.774330488203141
   H              0.502581411824087       0.282011712322001       0.254503640190233
   H              0.497418588175912       0.782011712322000       0.745496359809766
   H              0.469246954252223       0.390113054509514       0.084090073940341
   H              0.530753045747773       0.890113054509512       0.915909926059660
   H              0.332400548911322       0.173184426864126       0.064558965177340
   H              0.667599451088679       0.673184426864127       0.935441034822659
   H              0.502622475482436       0.062562390247349       0.092161733042619
   H              0.497377524517564       0.562562390247351       0.907838266957381
   H              0.194752656563352       0.698705041007335       0.241114027167471
   H              0.805247343436650       0.198705041007336       0.758885972832529
   H              0.252251819560807       0.803911044466112       0.132007508978386
   H              0.747748180439193       0.303911044466112       0.867992491021614
   H              0.148533390679595       1.002967406429074       0.197555244618959
   H              0.851466609320405       0.502967406429075       0.802444755381043
   H              0.834496558540147       0.227118297128980       0.379826295426077
   H              0.165503441459854       0.727118297128977       0.620173704573923
   H              0.998595752502322       0.354947101813863       0.379496974854077
   H              0.001404247497678       0.854947101813863       0.620503025145923
   H              0.895028329306815       0.428710827870873       0.465827488170375
   H              0.104971670693183       0.928710827870872       0.534172511829625
   H              0.924615906059455       0.750076386880003       0.336273303350839
   H              0.075384093940546       0.250076386879999       0.663726696649161
   H              0.714546405381800       0.392094443808155       0.234911076489088
   H              0.285453594618201       0.892094443808156       0.765088923510914
   H              1.006666194907223       0.532762309955414       0.191604872135309
   H             -0.006666194907223       0.032762309955414       0.808395127864692
   H              0.947750730053260       0.234763248333429       0.222914806134802
   H              0.052249269946738       0.734763248333428       0.777085193865199
   H              0.967493628210717       0.230627095926605       0.052456790582148
   H              0.032506371789281       0.730627095926606       0.947543209417852
   H              0.873989994677491       0.513919783879559       0.034736599897093
   H              0.126010005322510       1.013919783879554       0.965263400102907
   H              0.788535044048961       0.235990835138787       0.066413206947595
   H              0.211464955951037       0.735990835138786       0.933586793052404
   H              0.661852005856366       0.858079370941956       0.209342408451462
   H              0.338147994143633       0.358079370941956       0.790657591548538
   H              0.693569021873638       0.696289928395700       0.103560748251253
   H              0.306430978126363       0.196289928395699       0.896439251748746
   H              0.822644467569385       0.890844739893984       0.161095485297197
   H              0.177355532430615       0.390844739893987       0.838904514702805
   C              0.204502569599104       0.122877856059444       0.383660783904903
   C              0.795497430400894       0.622877856059445       0.616339216095098
   C              0.345311787604104       0.011708506616736       0.364445370969770
   C              0.654688212395896       0.511708506616737       0.635554629030230
   C              0.361150646426310       0.973637962781490       0.257227833662699
   C              0.638849353573693       0.473637962781489       0.742772166337303
   C              0.407032128998841       0.221139822569483       0.213807123600412
   C              0.592967871001160       0.721139822569483       0.786192876399591
   C              0.428877031492595       0.210097238420723       0.108273354758183
   C              0.571122968507406       0.710097238420722       0.891726645241817
   C              0.232186981475753       0.863497432370356       0.204125022520846
   C              0.767813018524247       0.363497432370356       0.795874977479153
   C              0.718275869800798       0.731948590280866       0.380962938401642
   C              0.281724130199203       0.231948590280865       0.619037061598358
   C              0.840536257870662       0.611950042151625       0.334517301957612
   C              0.159463742129340       0.111950042151624       0.665482698042387
   C              0.797506965388208       0.532428049107594       0.231202556900547
   C              0.202493034611790       0.032428049107594       0.768797443099454
   C              0.916459728991476       0.407646337875538       0.183948018922923
   C              0.083540271008525       0.907646337875538       0.816051981077076
   C              0.884568036823180       0.343988444516896       0.079059495636428
   C              0.115431963176822       0.843988444516897       0.920940504363572
   C              0.740343289735723       0.756361866682480       0.173324227089983
   C              0.259656710264276       0.256361866682481       0.826675772910018
   N              0.367502928646517       0.770968707892287       0.419277549720264
   N              0.632497071353481       0.270968707892287       0.580722450279736
   N              0.894953243058019       0.390521931626141       0.392229455519854
   N              0.105046756941982       0.890521931626141       0.607770544480147
   O              0.117770055365735       0.976875350844045       0.414477705792715
   O              0.882229944634266       0.476875350844044       0.585522294207284
   O              0.184154477231779       0.351334666759250       0.364443727240059
   O              0.815845522768222       0.851334666759250       0.635556272759940
   O              0.629860552685012       0.580501384944224       0.408852887743045
   O              0.370139447314987       0.080501384944225       0.591147112256954
   O              0.712203346710956       0.965535045600682       0.384757122013325
   O              0.287796653289044       0.465535045600681       0.615242877986677
%ENDBLOCK positions_frac

FIX_COM : true

%BLOCK species_gamma
   radsectesla
   H          267522128.0    
%ENDBLOCK species_gamma

%BLOCK species_pot
   H       /home/ufaserv1_a/eenadbu/Pseudopotentials/MS/H_00.recpot
   C       /home/ufaserv1_a/eenadbu/Pseudopotentials/MS/C_00.recpot
   N       /home/ufaserv1_a/eenadbu/Pseudopotentials/MS/N_00.recpot
   O       /home/ufaserv1_a/eenadbu/Pseudopotentials/RB/o-optgga1.recpot
%ENDBLOCK species_pot

SYMMETRY_TOL :     0.001000

%BLOCK symmetry_ops
# Symm. op. 1       E
          1.000000000000000       0.000000000000000       0.000000000000000
          0.000000000000000       1.000000000000000       0.000000000000000
         -0.000000000000000       0.000000000000000       1.000000000000000
          0.000000000000000       0.000000000000000       0.000000000000000
# Symm. op. 2     2_1
         -1.000000000000000       0.000000000000000       0.000000000000000
          0.000000000000000       1.000000000000000       0.000000000000000
          0.000000000000000       0.000000000000000      -1.000000000000000
         -0.000000000000000       0.500000000000000       0.000000000000000
%ENDBLOCK symmetry_ops

kpoint_mp_grid :    2   2   1


%block phonon_kpoint_list
0.0 0.0 0.0
%endblock phonon_kpoint_list
