ENCUT = 600.0
#NBANDS = 44
IVDW =12
LSCALU = .TRUE.  ! Optimised for a 4 core machine
LMAXMIX = 4
ISTART =  1
ICHARG = 0
IBRION = 6       ! Numerical calculation of hessian with symmetry
POTIM  = 0.015   ! Step taken in numerical difference
NFREE  = 2       ! Central difference
ISIF   = 3       ! calculate elastic constants
LEPSILON = .TRUE. 
LRPA = .FALSE.
#NWRITE = 3        ! output mass weighter normal modes
NSW    = 1      ! The number of geometry opt steps
SYMPREC = 1E-8   ! attempt to remove error message from IBZKPT
NELMIN = 4       ! The minimum number of electronic optimisation steps
LPLANE = .TRUE.  ! Optimised for a 4 core machine
LSCALU = .TRUE.  ! Optimised for a 4 core machine
# NPAR = 1
NSIM = 4
NELMIN = 4       ! The minimum number of electronic optimisation steps
PREC   = Accurate
ALGO  = Fast     ! need the starting wavefunction for this to work
LREAL  = .FALSE.
ISMEAR = -5       ! Smearing method 0=Gaussian, -5=tetrahedron (needs gamma and >2 kpoints)
SIGMA  = 0.05    ! Width of smearing 
EDIFF  = 5E-6    ! A bit more accurate
