Generated by cif2cell 1.1.0.  :  S.C.Abr
   3.2500000000000000     
     0.8780320154289510   -0.5069320204650143    0.0000000000000000
     0.0000000000000000    1.0138640409300286    0.0000000000000000
     0.0000000000000000    0.0000000000000000    1.6260997503799155
   Zn   O 
     2     2
Direct
  0.3333333333333357  0.6666666666666643  0.0009003500272603
  0.6666666666666643  0.3333333333333357  0.5009003500272603
  0.3333333333333357  0.6666666666666643  0.3815996499727400
  0.6666666666666643  0.3333333333333357  0.8815996499727400

  0.00000000E+00  0.00000000E+00  0.00000000E+00
  0.00000000E+00  0.00000000E+00  0.00000000E+00
  0.00000000E+00  0.00000000E+00  0.00000000E+00
  0.00000000E+00  0.00000000E+00  0.00000000E+00
