    12
unstable frequency at     -0.001 1/cm IR int. is 3.4386e-10 D^2/Ang^2; red. mass is 19.842 a.m.u.; force const. is 0.000 mDyne/Ang.
Na       -0.3751    1.4480    1.2155    0.0408    0.0045   -0.0502
Na        3.0360    2.7116    4.6424    0.0408    0.0045   -0.0502
S         2.0104    3.9926    1.4749    0.0408    0.0045   -0.0502
S         0.6505    0.1670    4.3830    0.0408    0.0045   -0.0502
O         2.1784   -0.3978    2.4292    0.0408    0.0045   -0.0502
O         0.4825    4.5574    3.4286    0.0408    0.0045   -0.0502
O         2.8963    4.8446    0.6843    0.0408    0.0045   -0.0502
O        -0.2354   -0.6849    5.1736    0.0408    0.0045   -0.0502
O         0.8549    3.4494    0.7631    0.0408    0.0045   -0.0502
O         1.8060    0.7102    5.0947    0.0408    0.0045   -0.0502
O         2.6730    3.0093    2.3306    0.0408    0.0045   -0.0502
O        -0.0120    1.1503    3.5272    0.0408    0.0045   -0.0502
    12
unstable frequency at     -0.001 1/cm IR int. is 1.2549e-11 D^2/Ang^2; red. mass is 19.842 a.m.u.; force const. is 0.000 mDyne/Ang.
Na       -0.3751    1.4480    1.2155   -0.0038    0.0646    0.0027
Na        3.0360    2.7116    4.6424   -0.0038    0.0646    0.0027
S         2.0104    3.9926    1.4749   -0.0038    0.0646    0.0027
S         0.6505    0.1670    4.3830   -0.0038    0.0646    0.0027
O         2.1784   -0.3978    2.4292   -0.0038    0.0646    0.0027
O         0.4825    4.5574    3.4286   -0.0038    0.0646    0.0027
O         2.8963    4.8446    0.6843   -0.0038    0.0646    0.0027
O        -0.2354   -0.6849    5.1736   -0.0038    0.0646    0.0027
O         0.8549    3.4494    0.7631   -0.0038    0.0646    0.0027
O         1.8060    0.7102    5.0947   -0.0038    0.0646    0.0027
O         2.6730    3.0093    2.3306   -0.0038    0.0646    0.0027
O        -0.0120    1.1503    3.5272   -0.0038    0.0646    0.0027
    12
unstable frequency at     -0.000 1/cm IR int. is 2.2264e-11 D^2/Ang^2; red. mass is 19.842 a.m.u.; force const. is 0.000 mDyne/Ang.
Na       -0.3751    1.4480    1.2155    0.0502    0.0012    0.0409
Na        3.0360    2.7116    4.6424    0.0502    0.0012    0.0409
S         2.0104    3.9926    1.4749    0.0502    0.0012    0.0409
S         0.6505    0.1670    4.3830    0.0502    0.0012    0.0409
O         2.1784   -0.3978    2.4292    0.0502    0.0012    0.0409
O         0.4825    4.5574    3.4286    0.0502    0.0012    0.0409
O         2.8963    4.8446    0.6843    0.0502    0.0012    0.0409
O        -0.2354   -0.6849    5.1736    0.0502    0.0012    0.0409
O         0.8549    3.4494    0.7631    0.0502    0.0012    0.0409
O         1.8060    0.7102    5.0947    0.0502    0.0012    0.0409
O         2.6730    3.0093    2.3306    0.0502    0.0012    0.0409
O        -0.0120    1.1503    3.5272    0.0502    0.0012    0.0409
    12
stable frequency at     86.699 1/cm IR int. is 5.0055e-01 D^2/Ang^2; red. mass is 16.816 a.m.u.; force const. is 0.074 mDyne/Ang.
Na       -0.3751    1.4480    1.2155    0.0348   -0.0393    0.0242
Na        3.0360    2.7116    4.6424    0.0348   -0.0393    0.0242
S         2.0104    3.9926    1.4749   -0.0018    0.0071    0.0019
S         0.6505    0.1670    4.3830   -0.0018    0.0071    0.0019
O         2.1784   -0.3978    2.4292   -0.0738    0.0444   -0.0803
O         0.4825    4.5574    3.4286   -0.0738    0.0444   -0.0803
O         2.8963    4.8446    0.6843   -0.0030   -0.0112   -0.0197
O        -0.2354   -0.6849    5.1736   -0.0030   -0.0112   -0.0197
O         0.8549    3.4494    0.7631    0.0283   -0.0560    0.0001
O         1.8060    0.7102    5.0947    0.0283   -0.0560    0.0001
O         2.6730    3.0093    2.3306    0.0020    0.0651    0.0613
O        -0.0120    1.1503    3.5272    0.0020    0.0651    0.0613
    12
stable frequency at     98.448 1/cm IR int. is 4.2125e-11 D^2/Ang^2; red. mass is 21.440 a.m.u.; force const. is 0.122 mDyne/Ang.
Na       -0.3751    1.4480    1.2155   -0.1173    0.0091   -0.0187
Na        3.0360    2.7116    4.6424    0.1173   -0.0091    0.0187
S         2.0104    3.9926    1.4749    0.0120   -0.0299    0.0262
S         0.6505    0.1670    4.3830   -0.0120    0.0299   -0.0262
O         2.1784   -0.3978    2.4292    0.0225   -0.0163    0.0114
O         0.4825    4.5574    3.4286   -0.0225    0.0163   -0.0114
O         2.8963    4.8446    0.6843    0.0122   -0.0412    0.0133
O        -0.2354   -0.6849    5.1736   -0.0122    0.0412   -0.0133
O         0.8549    3.4494    0.7631    0.0067   -0.0344    0.0388
O         1.8060    0.7102    5.0947   -0.0067    0.0344   -0.0388
O         2.6730    3.0093    2.3306    0.0135   -0.0247    0.0310
O        -0.0120    1.1503    3.5272   -0.0135    0.0247   -0.0310
    12
stable frequency at    109.191 1/cm IR int. is 1.6313e-10 D^2/Ang^2; red. mass is 18.070 a.m.u.; force const. is 0.127 mDyne/Ang.
Na       -0.3751    1.4480    1.2155   -0.0527   -0.0132    0.0259
Na        3.0360    2.7116    4.6424    0.0527    0.0132   -0.0259
S         2.0104    3.9926    1.4749   -0.0295    0.0138   -0.0305
S         0.6505    0.1670    4.3830    0.0295   -0.0138    0.0305
O         2.1784   -0.3978    2.4292   -0.0472    0.0132   -0.0383
O         0.4825    4.5574    3.4286    0.0472   -0.0132    0.0383
O         2.8963    4.8446    0.6843   -0.0767    0.0242   -0.0714
O        -0.2354   -0.6849    5.1736    0.0767   -0.0242    0.0714
O         0.8549    3.4494    0.7631   -0.0305   -0.0377    0.0100
O         1.8060    0.7102    5.0947    0.0305    0.0377   -0.0100
O         2.6730    3.0093    2.3306    0.0231    0.0560   -0.0223
O        -0.0120    1.1503    3.5272   -0.0231   -0.0560    0.0223
    12
stable frequency at    111.161 1/cm IR int. is 6.6342e-10 D^2/Ang^2; red. mass is 19.250 a.m.u.; force const. is 0.140 mDyne/Ang.
Na       -0.3751    1.4480    1.2155    0.0100   -0.0618    0.0092
Na        3.0360    2.7116    4.6424   -0.0100    0.0618   -0.0092
S         2.0104    3.9926    1.4749   -0.0411   -0.0410   -0.0118
S         0.6505    0.1670    4.3830    0.0411    0.0410    0.0118
O         2.1784   -0.3978    2.4292    0.0095   -0.0205   -0.0043
O         0.4825    4.5574    3.4286   -0.0095    0.0205    0.0043
O         2.8963    4.8446    0.6843   -0.0214   -0.0593   -0.0107
O        -0.2354   -0.6849    5.1736    0.0214    0.0593    0.0107
O         0.8549    3.4494    0.7631   -0.0624    0.0012   -0.0079
O         1.8060    0.7102    5.0947    0.0624   -0.0012    0.0079
O         2.6730    3.0093    2.3306   -0.0709   -0.0671   -0.0190
O        -0.0120    1.1503    3.5272    0.0709    0.0671    0.0190
    12
stable frequency at    115.201 1/cm IR int. is 3.4844e+00 D^2/Ang^2; red. mass is 20.363 a.m.u.; force const. is 0.159 mDyne/Ang.
Na       -0.3751    1.4480    1.2155   -0.0872    0.0620    0.0484
Na        3.0360    2.7116    4.6424   -0.0872    0.0620    0.0484
S         2.0104    3.9926    1.4749    0.0202   -0.0133   -0.0091
S         0.6505    0.1670    4.3830    0.0202   -0.0133   -0.0091
O         2.1784   -0.3978    2.4292   -0.0154   -0.0154   -0.0368
O         0.4825    4.5574    3.4286   -0.0154   -0.0154   -0.0368
O         2.8963    4.8446    0.6843    0.0444   -0.0115    0.0181
O        -0.2354   -0.6849    5.1736    0.0444   -0.0115    0.0181
O         0.8549    3.4494    0.7631    0.0516   -0.0285   -0.0460
O         1.8060    0.7102    5.0947    0.0516   -0.0285   -0.0460
O         2.6730    3.0093    2.3306    0.0042   -0.0070    0.0134
O        -0.0120    1.1503    3.5272    0.0042   -0.0070    0.0134
    12
stable frequency at    122.151 1/cm IR int. is 8.6229e-01 D^2/Ang^2; red. mass is 17.155 a.m.u.; force const. is 0.151 mDyne/Ang.
Na       -0.3751    1.4480    1.2155    0.0582    0.0179   -0.0264
Na        3.0360    2.7116    4.6424    0.0582    0.0179   -0.0264
S         2.0104    3.9926    1.4749   -0.0111   -0.0002    0.0075
S         0.6505    0.1670    4.3830   -0.0111   -0.0002    0.0075
O         2.1784   -0.3978    2.4292   -0.0512   -0.0159   -0.0014
O         0.4825    4.5574    3.4286   -0.0512   -0.0159   -0.0014
O         2.8963    4.8446    0.6843    0.0469    0.0009    0.0758
O        -0.2354   -0.6849    5.1736    0.0469    0.0009    0.0758
O         0.8549    3.4494    0.7631    0.0213    0.0279   -0.0679
O         1.8060    0.7102    5.0947    0.0213    0.0279   -0.0679
O         2.6730    3.0093    2.3306   -0.0785   -0.0381    0.0165
O        -0.0120    1.1503    3.5272   -0.0785   -0.0381    0.0165
    12
stable frequency at    128.149 1/cm IR int. is 6.2331e-11 D^2/Ang^2; red. mass is 19.977 a.m.u.; force const. is 0.193 mDyne/Ang.
Na       -0.3751    1.4480    1.2155   -0.0454    0.0678    0.0755
Na        3.0360    2.7116    4.6424    0.0454   -0.0678   -0.0755
S         2.0104    3.9926    1.4749   -0.0064    0.0168   -0.0223
S         0.6505    0.1670    4.3830    0.0064   -0.0168    0.0223
O         2.1784   -0.3978    2.4292    0.0262   -0.0029    0.0224
O         0.4825    4.5574    3.4286   -0.0262    0.0029   -0.0224
O         2.8963    4.8446    0.6843    0.0181    0.0159    0.0079
O        -0.2354   -0.6849    5.1736   -0.0181   -0.0159   -0.0079
O         0.8549    3.4494    0.7631   -0.0200    0.0603   -0.0325
O         1.8060    0.7102    5.0947    0.0200   -0.0603    0.0325
O         2.6730    3.0093    2.3306   -0.0352   -0.0323   -0.0513
O        -0.0120    1.1503    3.5272    0.0352    0.0323    0.0513
    12
stable frequency at    173.073 1/cm IR int. is 5.0277e-01 D^2/Ang^2; red. mass is 16.701 a.m.u.; force const. is 0.295 mDyne/Ang.
Na       -0.3751    1.4480    1.2155   -0.0357   -0.0387   -0.0095
Na        3.0360    2.7116    4.6424   -0.0357   -0.0387   -0.0095
S         2.0104    3.9926    1.4749    0.0044    0.0067    0.0004
S         0.6505    0.1670    4.3830    0.0044    0.0067    0.0004
O         2.1784   -0.3978    2.4292    0.0633    0.0686   -0.0285
O         0.4825    4.5574    3.4286    0.0633    0.0686   -0.0285
O         2.8963    4.8446    0.6843    0.0657   -0.0673   -0.0105
O        -0.2354   -0.6849    5.1736    0.0657   -0.0673   -0.0106
O         0.8549    3.4494    0.7631   -0.0224    0.0478    0.0143
O         1.8060    0.7102    5.0947   -0.0224    0.0478    0.0143
O         2.6730    3.0093    2.3306   -0.0640   -0.0069    0.0375
O        -0.0120    1.1503    3.5272   -0.0640   -0.0069    0.0375
    12
stable frequency at    174.060 1/cm IR int. is 7.5405e-11 D^2/Ang^2; red. mass is 16.445 a.m.u.; force const. is 0.294 mDyne/Ang.
Na       -0.3751    1.4480    1.2155    0.0201   -0.0219    0.0101
Na        3.0360    2.7116    4.6424   -0.0201    0.0219   -0.0101
S         2.0104    3.9926    1.4749    0.0197   -0.0051    0.0007
S         0.6505    0.1670    4.3830   -0.0197    0.0051   -0.0007
O         2.1784   -0.3978    2.4292    0.0758   -0.0201    0.0594
O         0.4825    4.5574    3.4286   -0.0758    0.0201   -0.0594
O         2.8963    4.8446    0.6843   -0.0277    0.0134   -0.0336
O        -0.2354   -0.6849    5.1736    0.0277   -0.0134    0.0336
O         0.8549    3.4494    0.7631   -0.0264    0.0093    0.0671
O         1.8060    0.7102    5.0947    0.0264   -0.0093   -0.0671
O         2.6730    3.0093    2.3306    0.0848   -0.0216   -0.0656
O        -0.0120    1.1503    3.5272   -0.0848    0.0216    0.0656
    12
stable frequency at    194.184 1/cm IR int. is 8.3296e-09 D^2/Ang^2; red. mass is 20.254 a.m.u.; force const. is 0.450 mDyne/Ang.
Na       -0.3751    1.4480    1.2155    0.0109    0.0731   -0.0775
Na        3.0360    2.7116    4.6424   -0.0109   -0.0731    0.0775
S         2.0104    3.9926    1.4749   -0.0315    0.0159    0.0174
S         0.6505    0.1670    4.3830    0.0315   -0.0159   -0.0174
O         2.1784   -0.3978    2.4292    0.0071    0.0130    0.0181
O         0.4825    4.5574    3.4286   -0.0071   -0.0130   -0.0181
O         2.8963    4.8446    0.6843   -0.0420   -0.0053   -0.0162
O        -0.2354   -0.6849    5.1736    0.0420    0.0053    0.0162
O         0.8549    3.4494    0.7631   -0.0625    0.0353    0.0499
O         1.8060    0.7102    5.0947    0.0625   -0.0353   -0.0499
O         2.6730    3.0093    2.3306   -0.0355    0.0076    0.0100
O        -0.0120    1.1503    3.5272    0.0355   -0.0076   -0.0100
    12
stable frequency at    194.719 1/cm IR int. is 3.4825e+00 D^2/Ang^2; red. mass is 20.702 a.m.u.; force const. is 0.462 mDyne/Ang.
Na       -0.3751    1.4480    1.2155    0.0623    0.0577    0.0844
Na        3.0360    2.7116    4.6424    0.0623    0.0577    0.0844
S         2.0104    3.9926    1.4749   -0.0119   -0.0152   -0.0216
S         0.6505    0.1670    4.3830   -0.0119   -0.0152   -0.0216
O         2.1784   -0.3978    2.4292    0.0249    0.0057   -0.0240
O         0.4825    4.5574    3.4286    0.0249    0.0057   -0.0240
O         2.8963    4.8446    0.6843   -0.0137   -0.0377   -0.0462
O        -0.2354   -0.6849    5.1736   -0.0137   -0.0377   -0.0462
O         0.8549    3.4494    0.7631   -0.0427    0.0055    0.0084
O         1.8060    0.7102    5.0947   -0.0427    0.0054    0.0084
O         2.6730    3.0093    2.3306   -0.0342   -0.0257   -0.0161
O        -0.0120    1.1503    3.5272   -0.0342   -0.0257   -0.0161
    12
stable frequency at    214.564 1/cm IR int. is 1.7755e-09 D^2/Ang^2; red. mass is 20.372 a.m.u.; force const. is 0.553 mDyne/Ang.
Na       -0.3751    1.4480    1.2155    0.0500    0.0781    0.0553
Na        3.0360    2.7116    4.6424   -0.0500   -0.0781   -0.0553
S         2.0104    3.9926    1.4749    0.0006   -0.0398    0.0053
S         0.6505    0.1670    4.3830   -0.0006    0.0398   -0.0053
O         2.1784   -0.3978    2.4292   -0.0113   -0.0179   -0.0251
O         0.4825    4.5574    3.4286    0.0113    0.0179    0.0251
O         2.8963    4.8446    0.6843   -0.0155   -0.0466   -0.0175
O        -0.2354   -0.6849    5.1736    0.0155    0.0466    0.0175
O         0.8549    3.4494    0.7631    0.0037   -0.0755    0.0264
O         1.8060    0.7102    5.0947   -0.0037    0.0755   -0.0264
O         2.6730    3.0093    2.3306    0.0185   -0.0150    0.0225
O        -0.0120    1.1503    3.5272   -0.0185    0.0150   -0.0225
    12
stable frequency at    216.989 1/cm IR int. is 3.6666e+00 D^2/Ang^2; red. mass is 20.472 a.m.u.; force const. is 0.568 mDyne/Ang.
Na       -0.3751    1.4480    1.2155   -0.0088   -0.0837    0.0815
Na        3.0360    2.7116    4.6424   -0.0088   -0.0837    0.0815
S         2.0104    3.9926    1.4749    0.0015    0.0199   -0.0208
S         0.6505    0.1670    4.3830    0.0015    0.0199   -0.0208
O         2.1784   -0.3978    2.4292    0.0003   -0.0070    0.0091
O         0.4825    4.5574    3.4286    0.0003   -0.0070    0.0091
O         2.8963    4.8446    0.6843    0.0052    0.0519    0.0138
O        -0.2354   -0.6849    5.1736    0.0052    0.0519    0.0138
O         0.8549    3.4494    0.7631    0.0103    0.0423   -0.0519
O         1.8060    0.7102    5.0947    0.0103    0.0422   -0.0519
O         2.6730    3.0093    2.3306   -0.0064   -0.0068   -0.0464
O        -0.0120    1.1503    3.5272   -0.0064   -0.0068   -0.0464
    12
stable frequency at    234.244 1/cm IR int. is 2.2415e-12 D^2/Ang^2; red. mass is 19.548 a.m.u.; force const. is 0.632 mDyne/Ang.
Na       -0.3751    1.4480    1.2155   -0.0055    0.0329   -0.0750
Na        3.0360    2.7116    4.6424    0.0055   -0.0329    0.0750
S         2.0104    3.9926    1.4749    0.0129   -0.0262   -0.0432
S         0.6505    0.1670    4.3830   -0.0129    0.0262    0.0432
O         2.1784   -0.3978    2.4292   -0.0033   -0.0269   -0.0251
O         0.4825    4.5574    3.4286    0.0034    0.0269    0.0251
O         2.8963    4.8446    0.6843   -0.0008    0.0071   -0.0249
O        -0.2354   -0.6849    5.1736    0.0008   -0.0071    0.0249
O         0.8549    3.4494    0.7631    0.0291   -0.0269   -0.0705
O         1.8060    0.7102    5.0947   -0.0291    0.0269    0.0705
O         2.6730    3.0093    2.3306    0.0228   -0.0440   -0.0713
O        -0.0120    1.1503    3.5272   -0.0228    0.0440    0.0713
    12
stable frequency at    330.489 1/cm IR int. is 4.7118e-13 D^2/Ang^2; red. mass is 16.755 a.m.u.; force const. is 1.078 mDyne/Ang.
Na       -0.3751    1.4480    1.2155   -0.0011    0.0003    0.0045
Na        3.0360    2.7116    4.6424    0.0011   -0.0003   -0.0045
S         2.0104    3.9926    1.4749   -0.0247   -0.0076    0.0270
S         0.6505    0.1670    4.3830    0.0247    0.0076   -0.0270
O         2.1784   -0.3978    2.4292   -0.0104   -0.0202   -0.0001
O         0.4825    4.5574    3.4286    0.0104    0.0202    0.0001
O         2.8963    4.8446    0.6843   -0.0629    0.0990    0.0987
O        -0.2354   -0.6849    5.1736    0.0629   -0.0990   -0.0987
O         0.8549    3.4494    0.7631    0.0045   -0.0472    0.0053
O         1.8060    0.7102    5.0947   -0.0045    0.0472   -0.0053
O         2.6730    3.0093    2.3306   -0.0072   -0.0402   -0.0215
O        -0.0120    1.1503    3.5272    0.0072    0.0402    0.0215
    12
stable frequency at    370.194 1/cm IR int. is 9.0096e-02 D^2/Ang^2; red. mass is 16.107 a.m.u.; force const. is 1.301 mDyne/Ang.
Na       -0.3751    1.4480    1.2155    0.0034   -0.0003   -0.0017
Na        3.0360    2.7116    4.6424    0.0034   -0.0003   -0.0017
S         2.0104    3.9926    1.4749   -0.0122    0.0061   -0.0041
S         0.6505    0.1670    4.3830   -0.0122    0.0061   -0.0041
O         2.1784   -0.3978    2.4292    0.0737   -0.0131    0.0612
O         0.4825    4.5574    3.4286    0.0737   -0.0131    0.0612
O         2.8963    4.8446    0.6843   -0.0482    0.0085   -0.0424
O        -0.2354   -0.6849    5.1736   -0.0482    0.0085   -0.0424
O         0.8549    3.4494    0.7631    0.0498   -0.0433   -0.0693
O         1.8060    0.7102    5.0947    0.0498   -0.0433   -0.0693
O         2.6730    3.0093    2.3306   -0.0557    0.0361    0.0611
O        -0.0120    1.1503    3.5272   -0.0557    0.0361    0.0611
    12
stable frequency at    394.454 1/cm IR int. is 3.4854e-14 D^2/Ang^2; red. mass is 16.036 a.m.u.; force const. is 1.470 mDyne/Ang.
Na       -0.3751    1.4480    1.2155    0.0014    0.0011    0.0018
Na        3.0360    2.7116    4.6424   -0.0014   -0.0011   -0.0018
S         2.0104    3.9926    1.4749   -0.0068    0.0013   -0.0046
S         0.6505    0.1670    4.3830    0.0068   -0.0013    0.0046
O         2.1784   -0.3978    2.4292    0.0855   -0.0204    0.0699
O         0.4825    4.5574    3.4286   -0.0855    0.0204   -0.0699
O         2.8963    4.8446    0.6843   -0.0547    0.0163   -0.0427
O        -0.2354   -0.6849    5.1736    0.0547   -0.0163    0.0427
O         0.8549    3.4494    0.7631    0.0453   -0.0370   -0.0615
O         1.8060    0.7102    5.0947   -0.0453    0.0370    0.0615
O         2.6730    3.0093    2.3306   -0.0466    0.0292    0.0566
O        -0.0120    1.1503    3.5272    0.0466   -0.0292   -0.0566
    12
stable frequency at    437.870 1/cm IR int. is 2.2067e-01 D^2/Ang^2; red. mass is 16.076 a.m.u.; force const. is 1.816 mDyne/Ang.
Na       -0.3751    1.4480    1.2155    0.0007   -0.0010    0.0051
Na        3.0360    2.7116    4.6424    0.0007   -0.0010    0.0051
S         2.0104    3.9926    1.4749   -0.0005    0.0068   -0.0095
S         0.6505    0.1670    4.3830   -0.0005    0.0068   -0.0095
O         2.1784   -0.3978    2.4292   -0.0495   -0.0754    0.0500
O         0.4825    4.5574    3.4286   -0.0495   -0.0754    0.0500
O         2.8963    4.8446    0.6843    0.0385   -0.0702   -0.0458
O        -0.2354   -0.6849    5.1736    0.0385   -0.0702   -0.0458
O         0.8549    3.4494    0.7631   -0.0214    0.0674   -0.0223
O         1.8060    0.7102    5.0947   -0.0214    0.0674   -0.0223
O         2.6730    3.0093    2.3306    0.0325    0.0661    0.0297
O        -0.0120    1.1503    3.5272    0.0325    0.0661    0.0297
    12
stable frequency at    521.310 1/cm IR int. is 4.5583e+00 D^2/Ang^2; red. mass is 18.020 a.m.u.; force const. is 2.885 mDyne/Ang.
Na       -0.3751    1.4480    1.2155    0.0060    0.0006    0.0006
Na        3.0360    2.7116    4.6424    0.0060    0.0006    0.0006
S         2.0104    3.9926    1.4749   -0.0251   -0.0223   -0.0484
S         0.6505    0.1670    4.3830   -0.0251   -0.0223   -0.0484
O         2.1784   -0.3978    2.4292    0.0535   -0.0319   -0.0175
O         0.4825    4.5574    3.4286    0.0535   -0.0319   -0.0175
O         2.8963    4.8446    0.6843    0.0386    0.0320    0.0815
O        -0.2354   -0.6849    5.1736    0.0386    0.0320    0.0815
O         0.8549    3.4494    0.7631   -0.0614   -0.0304    0.0100
O         1.8060    0.7102    5.0947   -0.0614   -0.0304    0.0100
O         2.6730    3.0093    2.3306    0.0110    0.0741    0.0222
O        -0.0120    1.1503    3.5272    0.0110    0.0741    0.0222
    12
stable frequency at    523.508 1/cm IR int. is 8.6397e-10 D^2/Ang^2; red. mass is 17.725 a.m.u.; force const. is 2.862 mDyne/Ang.
Na       -0.3751    1.4480    1.2155   -0.0006    0.0065   -0.0018
Na        3.0360    2.7116    4.6424    0.0006   -0.0065    0.0018
S         2.0104    3.9926    1.4749   -0.0496   -0.0234   -0.0019
S         0.6505    0.1670    4.3830    0.0496    0.0234    0.0019
O         2.1784   -0.3978    2.4292    0.0232   -0.0383    0.0068
O         0.4825    4.5574    3.4286   -0.0232    0.0383   -0.0068
O         2.8963    4.8446    0.6843    0.0092   -0.0353    0.0627
O        -0.2354   -0.6849    5.1736   -0.0092    0.0353   -0.0627
O         0.8549    3.4494    0.7631   -0.0418    0.0231   -0.0604
O         1.8060    0.7102    5.0947    0.0418   -0.0231    0.0604
O         2.6730    3.0093    2.3306    0.0792    0.0747    0.0074
O        -0.0120    1.1503    3.5272   -0.0792   -0.0747   -0.0074
    12
stable frequency at    526.136 1/cm IR int. is 3.7494e+00 D^2/Ang^2; red. mass is 17.823 a.m.u.; force const. is 2.907 mDyne/Ang.
Na       -0.3751    1.4480    1.2155   -0.0065   -0.0026   -0.0063
Na        3.0360    2.7116    4.6424   -0.0065   -0.0026   -0.0063
S         2.0104    3.9926    1.4749    0.0484   -0.0269   -0.0089
S         0.6505    0.1670    4.3830    0.0484   -0.0269   -0.0089
O         2.1784   -0.3978    2.4292    0.0001   -0.0574   -0.0538
O         0.4825    4.5574    3.4286    0.0001   -0.0574   -0.0538
O         2.8963    4.8446    0.6843   -0.0434    0.0656   -0.0212
O        -0.2354   -0.6849    5.1736   -0.0434    0.0656   -0.0212
O         0.8549    3.4494    0.7631   -0.0100    0.0655    0.0290
O         1.8060    0.7102    5.0947   -0.0100    0.0655    0.0290
O         2.6730    3.0093    2.3306   -0.0344   -0.0160    0.0729
O        -0.0120    1.1503    3.5272   -0.0344   -0.0160    0.0729
    12
stable frequency at    539.448 1/cm IR int. is 2.9876e-12 D^2/Ang^2; red. mass is 17.685 a.m.u.; force const. is 3.032 mDyne/Ang.
Na       -0.3751    1.4480    1.2155    0.0024   -0.0003   -0.0099
Na        3.0360    2.7116    4.6424   -0.0024    0.0003    0.0099
S         2.0104    3.9926    1.4749   -0.0268    0.0312   -0.0351
S         0.6505    0.1670    4.3830    0.0268   -0.0312    0.0351
O         2.1784   -0.3978    2.4292    0.0281    0.0210    0.0316
O         0.4825    4.5574    3.4286   -0.0281   -0.0210   -0.0316
O         2.8963    4.8446    0.6843    0.0792   -0.0088    0.0304
O        -0.2354   -0.6849    5.1736   -0.0792    0.0088   -0.0304
O         0.8549    3.4494    0.7631   -0.0142   -0.1002    0.0366
O         1.8060    0.7102    5.0947    0.0142    0.1002   -0.0366
O         2.6730    3.0093    2.3306   -0.0331    0.0337   -0.0440
O        -0.0120    1.1503    3.5272    0.0331   -0.0337    0.0440
    12
stable frequency at    558.338 1/cm IR int. is 1.8467e+00 D^2/Ang^2; red. mass is 17.977 a.m.u.; force const. is 3.302 mDyne/Ang.
Na       -0.3751    1.4480    1.2155   -0.0033   -0.0025    0.0001
Na        3.0360    2.7116    4.6424   -0.0033   -0.0025    0.0001
S         2.0104    3.9926    1.4749    0.0216    0.0459   -0.0291
S         0.6505    0.1670    4.3830    0.0216    0.0459   -0.0291
O         2.1784   -0.3978    2.4292   -0.0271   -0.0443    0.0322
O         0.4825    4.5574    3.4286   -0.0271   -0.0443    0.0322
O         2.8963    4.8446    0.6843    0.0567    0.0230   -0.0312
O        -0.2354   -0.6849    5.1736    0.0567    0.0230   -0.0312
O         0.8549    3.4494    0.7631    0.0069   -0.0618    0.0774
O         1.8060    0.7102    5.0947    0.0069   -0.0618    0.0774
O         2.6730    3.0093    2.3306   -0.0750   -0.0053   -0.0203
O        -0.0120    1.1503    3.5272   -0.0750   -0.0053   -0.0203
    12
stable frequency at    607.544 1/cm IR int. is 1.2796e-14 D^2/Ang^2; red. mass is 19.799 a.m.u.; force const. is 4.306 mDyne/Ang.
Na       -0.3751    1.4480    1.2155    0.0003    0.0008   -0.0036
Na        3.0360    2.7116    4.6424   -0.0003   -0.0008    0.0036
S         2.0104    3.9926    1.4749    0.0378   -0.0336   -0.0584
S         0.6505    0.1670    4.3830   -0.0378    0.0336    0.0584
O         2.1784   -0.3978    2.4292    0.0175   -0.0599   -0.0277
O         0.4825    4.5574    3.4286   -0.0175    0.0599    0.0277
O         2.8963    4.8446    0.6843    0.0218    0.0664    0.0121
O        -0.2354   -0.6849    5.1736   -0.0218   -0.0664   -0.0121
O         0.8549    3.4494    0.7631   -0.0562    0.0138    0.0380
O         1.8060    0.7102    5.0947    0.0562   -0.0138   -0.0380
O         2.6730    3.0093    2.3306   -0.0264    0.0282    0.0573
O        -0.0120    1.1503    3.5272    0.0264   -0.0282   -0.0573
    12
stable frequency at    655.025 1/cm IR int. is 2.0683e+01 D^2/Ang^2; red. mass is 20.019 a.m.u.; force const. is 5.061 mDyne/Ang.
Na       -0.3751    1.4480    1.2155   -0.0018    0.0024    0.0002
Na        3.0360    2.7116    4.6424   -0.0018    0.0024    0.0002
S         2.0104    3.9926    1.4749    0.0324   -0.0505   -0.0514
S         0.6505    0.1670    4.3830    0.0324   -0.0505   -0.0514
O         2.1784   -0.3978    2.4292   -0.0514    0.0875    0.0854
O         0.4825    4.5574    3.4286   -0.0514    0.0875    0.0854
O         2.8963    4.8446    0.6843    0.0035    0.0180   -0.0025
O        -0.2354   -0.6849    5.1736    0.0035    0.0180   -0.0025
O         0.8549    3.4494    0.7631   -0.0148   -0.0010   -0.0028
O         1.8060    0.7102    5.0947   -0.0148   -0.0010   -0.0028
O         2.6730    3.0093    2.3306    0.0003   -0.0067    0.0227
O        -0.0120    1.1503    3.5272    0.0003   -0.0067    0.0227
    12
stable frequency at    718.255 1/cm IR int. is 7.3143e-14 D^2/Ang^2; red. mass is 16.730 a.m.u.; force const. is 5.085 mDyne/Ang.
Na       -0.3751    1.4480    1.2155   -0.0005    0.0023   -0.0004
Na        3.0360    2.7116    4.6424    0.0005   -0.0023    0.0004
S         2.0104    3.9926    1.4749    0.0143   -0.0239   -0.0241
S         0.6505    0.1670    4.3830   -0.0143    0.0239    0.0241
O         2.1784   -0.3978    2.4292   -0.1031    0.0133    0.1305
O         0.4825    4.5574    3.4286    0.1031   -0.0133   -0.1305
O         2.8963    4.8446    0.6843   -0.0065   -0.0030    0.0092
O        -0.2354   -0.6849    5.1736    0.0065    0.0030   -0.0092
O         0.8549    3.4494    0.7631   -0.0158   -0.0028   -0.0082
O         1.8060    0.7102    5.0947    0.0158    0.0028    0.0082
O         2.6730    3.0093    2.3306    0.0084   -0.0035    0.0122
O        -0.0120    1.1503    3.5272   -0.0084    0.0035   -0.0122
    12
stable frequency at    813.693 1/cm IR int. is 3.7754e-14 D^2/Ang^2; red. mass is 16.967 a.m.u.; force const. is 6.619 mDyne/Ang.
Na       -0.3751    1.4480    1.2155   -0.0012    0.0028   -0.0001
Na        3.0360    2.7116    4.6424    0.0012   -0.0028    0.0001
S         2.0104    3.9926    1.4749    0.0070   -0.0377   -0.0173
S         0.6505    0.1670    4.3830   -0.0070    0.0377    0.0173
O         2.1784   -0.3978    2.4292    0.0443    0.1480   -0.0125
O         0.4825    4.5574    3.4286   -0.0443   -0.1480    0.0125
O         2.8963    4.8446    0.6843   -0.0080    0.0211    0.0164
O        -0.2354   -0.6849    5.1736    0.0080   -0.0211   -0.0164
O         0.8549    3.4494    0.7631   -0.0317   -0.0059   -0.0224
O         1.8060    0.7102    5.0947    0.0317    0.0059    0.0224
O         2.6730    3.0093    2.3306    0.0223   -0.0154    0.0245
O        -0.0120    1.1503    3.5272   -0.0223    0.0154   -0.0245
    12
stable frequency at   1013.196 1/cm IR int. is 8.5265e+00 D^2/Ang^2; red. mass is 16.532 a.m.u.; force const. is 9.999 mDyne/Ang.
Na       -0.3751    1.4480    1.2155   -0.0004    0.0003    0.0008
Na        3.0360    2.7116    4.6424   -0.0004    0.0003    0.0008
S         2.0104    3.9926    1.4749    0.0138   -0.0201   -0.0202
S         0.6505    0.1670    4.3830    0.0138   -0.0201   -0.0202
O         2.1784   -0.3978    2.4292    0.0011   -0.0029   -0.0024
O         0.4825    4.5574    3.4286    0.0011   -0.0029   -0.0024
O         2.8963    4.8446    0.6843   -0.0604   -0.0570    0.0527
O        -0.2354   -0.6849    5.1736   -0.0604   -0.0570    0.0527
O         0.8549    3.4494    0.7631    0.0784    0.0355    0.0486
O         1.8060    0.7102    5.0947    0.0784    0.0355    0.0486
O         2.6730    3.0093    2.3306   -0.0462    0.0641   -0.0595
O        -0.0120    1.1503    3.5272   -0.0462    0.0641   -0.0595
    12
stable frequency at   1043.375 1/cm IR int. is 9.6160e-14 D^2/Ang^2; red. mass is 17.024 a.m.u.; force const. is 10.919 mDyne/Ang.
Na       -0.3751    1.4480    1.2155    0.0002   -0.0008    0.0004
Na        3.0360    2.7116    4.6424   -0.0002    0.0008   -0.0004
S         2.0104    3.9926    1.4749   -0.0212    0.0277    0.0256
S         0.6505    0.1670    4.3830    0.0212   -0.0277   -0.0256
O         2.1784   -0.3978    2.4292   -0.0092   -0.0170    0.0060
O         0.4825    4.5574    3.4286    0.0092    0.0170   -0.0060
O         2.8963    4.8446    0.6843    0.0637    0.0522   -0.0588
O        -0.2354   -0.6849    5.1736   -0.0637   -0.0522    0.0588
O         0.8549    3.4494    0.7631   -0.0664   -0.0334   -0.0447
O         1.8060    0.7102    5.0947    0.0664    0.0334    0.0447
O         2.6730    3.0093    2.3306    0.0452   -0.0658    0.0542
O        -0.0120    1.1503    3.5272   -0.0452    0.0658   -0.0542
    12
stable frequency at   1210.260 1/cm IR int. is 2.8072e+01 D^2/Ang^2; red. mass is 20.572 a.m.u.; force const. is 17.753 mDyne/Ang.
Na       -0.3751    1.4480    1.2155   -0.0018    0.0008   -0.0007
Na        3.0360    2.7116    4.6424   -0.0018    0.0008   -0.0007
S         2.0104    3.9926    1.4749    0.0540   -0.0260    0.0576
S         0.6505    0.1670    4.3830    0.0540   -0.0260    0.0576
O         2.1784   -0.3978    2.4292   -0.0016    0.0018   -0.0006
O         0.4825    4.5574    3.4286   -0.0016    0.0018   -0.0006
O         2.8963    4.8446    0.6843    0.0088    0.0117   -0.0117
O        -0.2354   -0.6849    5.1736    0.0089    0.0117   -0.0117
O         0.8549    3.4494    0.7631   -0.0667   -0.0280   -0.0424
O         1.8060    0.7102    5.0947   -0.0667   -0.0280   -0.0424
O         2.6730    3.0093    2.3306   -0.0463    0.0655   -0.0597
O        -0.0120    1.1503    3.5272   -0.0463    0.0655   -0.0597
    12
stable frequency at   1216.623 1/cm IR int. is 1.9878e-10 D^2/Ang^2; red. mass is 20.585 a.m.u.; force const. is 17.952 mDyne/Ang.
Na       -0.3751    1.4480    1.2155   -0.0003   -0.0011    0.0016
Na        3.0360    2.7116    4.6424    0.0003    0.0011   -0.0016
S         2.0104    3.9926    1.4749    0.0714    0.0152    0.0401
S         0.6505    0.1670    4.3830   -0.0714   -0.0152   -0.0401
O         2.1784   -0.3978    2.4292    0.0012   -0.0041   -0.0050
O         0.4825    4.5574    3.4286   -0.0012    0.0041    0.0050
O         2.8963    4.8446    0.6843   -0.0242   -0.0235    0.0156
O        -0.2354   -0.6849    5.1736    0.0242    0.0235   -0.0156
O         0.8549    3.4494    0.7631   -0.0870   -0.0406   -0.0552
O         1.8060    0.7102    5.0947    0.0870    0.0406    0.0552
O         2.6730    3.0093    2.3306   -0.0286    0.0369   -0.0386
O        -0.0120    1.1503    3.5272    0.0286   -0.0369    0.0386
    12
stable frequency at   1224.225 1/cm IR int. is 2.4529e+01 D^2/Ang^2; red. mass is 20.651 a.m.u.; force const. is 18.235 mDyne/Ang.
Na       -0.3751    1.4480    1.2155    0.0015    0.0014   -0.0002
Na        3.0360    2.7116    4.6424    0.0015    0.0014   -0.0002
S         2.0104    3.9926    1.4749   -0.0543   -0.0588    0.0246
S         0.6505    0.1670    4.3830   -0.0543   -0.0588    0.0246
O         2.1784   -0.3978    2.4292    0.0006    0.0031    0.0010
O         0.4825    4.5574    3.4286    0.0006    0.0031    0.0010
O         2.8963    4.8446    0.6843    0.0649    0.0598   -0.0572
O        -0.2354   -0.6849    5.1736    0.0649    0.0598   -0.0572
O         0.8549    3.4494    0.7631    0.0551    0.0269    0.0308
O         1.8060    0.7102    5.0947    0.0551    0.0269    0.0308
O         2.6730    3.0093    2.3306   -0.0139    0.0260   -0.0236
O        -0.0120    1.1503    3.5272   -0.0139    0.0260   -0.0236
    12
stable frequency at   1247.299 1/cm IR int. is 6.5415e-12 D^2/Ang^2; red. mass is 20.780 a.m.u.; force const. is 19.047 mDyne/Ang.
Na       -0.3751    1.4480    1.2155   -0.0003    0.0021    0.0024
Na        3.0360    2.7116    4.6424    0.0003   -0.0021   -0.0024
S         2.0104    3.9926    1.4749   -0.0156   -0.0656    0.0511
S         0.6505    0.1670    4.3830    0.0156    0.0656   -0.0511
O         2.1784   -0.3978    2.4292   -0.0079    0.0069    0.0094
O         0.4825    4.5574    3.4286    0.0079   -0.0069   -0.0094
O         2.8963    4.8446    0.6843    0.0558    0.0570   -0.0534
O        -0.2354   -0.6849    5.1736   -0.0558   -0.0570    0.0534
O         0.8549    3.4494    0.7631    0.0106    0.0094    0.0020
O         1.8060    0.7102    5.0947   -0.0106   -0.0094   -0.0020
O         2.6730    3.0093    2.3306   -0.0354    0.0578   -0.0518
O        -0.0120    1.1503    3.5272    0.0354   -0.0578    0.0518
