Generated by cif2cell 1.2.10.  :  S.C.Ab
   3.2500000000000000     
     0.8712867433529671   -0.5030376358161880    0.0000000000000000
     0.0000000000000000    1.0060752716323760    0.0000000000000000
     0.0000000000000000    0.0000000000000000    1.6145207796621246
   Zn   O 
     2     2
Direct
  0.3333333333333357  0.6666666666666643  0.0009768430301116
  0.6666666666666643  0.3333333333333357  0.5009768430301116
  0.3333333333333357  0.6666666666666643  0.3815231569698887
  0.6666666666666643  0.3333333333333357  0.8815231569698887

  0.00000000E+00  0.00000000E+00  0.00000000E+00
  0.00000000E+00  0.00000000E+00  0.00000000E+00
  0.00000000E+00  0.00000000E+00  0.00000000E+00
  0.00000000E+00  0.00000000E+00  0.00000000E+00
