Generated by cif2cell 1.2.10 from COD re
   4.78000000000000     
     0.9847381902590561    0.0034085360698814   -0.0032709196839050
    -0.1443382751925503    1.1376226052265137    0.0025557474843651
    -0.2943802241934863   -0.2966789322107811    1.1959641514256536
   Na   S    O 
     2     2     8
Direct
  0.0413799037162121  0.3133033699377066  0.2120372048255348
  0.9586200962837879  0.6866966300623005  0.7879627951744652
  0.6115298045997122  0.7768438356647138  0.2427898973840499
  0.3884701954002878  0.2231561643352862  0.7572101026159501
  0.5809350641249225  0.0404449169026080  0.4165817938918224
  0.4190649358750704  0.9595550830973920  0.5834182061081776
  0.7748148530601924  0.8977739096791524  0.1064654053784793
  0.2251851469398076  0.1022260903208476  0.8935345946215207
  0.3105774069098928  0.6478865022307616  0.1196194574879499
  0.6894225930901072  0.3521134977692384  0.8803805425120501
  0.7742982956133559  0.6335291127004723  0.3907539646181917
  0.2257017043866441  0.3664708872995277  0.6092460353818083
 
  0.00000000E+00  0.00000000E+00  0.00000000E+00
  0.00000000E+00  0.00000000E+00  0.00000000E+00
  0.00000000E+00  0.00000000E+00  0.00000000E+00
  0.00000000E+00  0.00000000E+00  0.00000000E+00
  0.00000000E+00  0.00000000E+00  0.00000000E+00
  0.00000000E+00  0.00000000E+00  0.00000000E+00
  0.00000000E+00  0.00000000E+00  0.00000000E+00
  0.00000000E+00  0.00000000E+00  0.00000000E+00
  0.00000000E+00  0.00000000E+00  0.00000000E+00
  0.00000000E+00  0.00000000E+00  0.00000000E+00
  0.00000000E+00  0.00000000E+00  0.00000000E+00
  0.00000000E+00  0.00000000E+00  0.00000000E+00
