Generated by cif2cell 1.2.10 from COD re
   4.78000000000000     
     0.9847381902590561    0.0034085360698814   -0.0032709196839050
    -0.1443382751925503    1.1376226052265137    0.0025557474843651
    -0.2943802241934863   -0.2966789322107811    1.1959641514256536
   Na   S    O 
     2     2     8
Direct
  0.0413799037162087  0.3133033699377042  0.2120372048255369
  0.9586200962837907  0.6866966300623031  0.7879627951744634
  0.6115298045997107  0.7768438356647143  0.2427898973840476
  0.3884701954002890  0.2231561643352857  0.7572101026159519
  0.5809350641249207  0.0404449169026074  0.4165817938918256
  0.4190649358750723  0.9595550830973923  0.5834182061081751
  0.7748148530601954  0.8977739096791510  0.1064654053784781
  0.2251851469398048  0.1022260903208492  0.8935345946215217
  0.3105774069098950  0.6478865022307603  0.1196194574879533
  0.6894225930901049  0.3521134977692399  0.8803805425120468
  0.7742982956133559  0.6335291127004706  0.3907539646181932
  0.2257017043866439  0.3664708872995298  0.6092460353818069
 
  0.00000000E+00  0.00000000E+00  0.00000000E+00
  0.00000000E+00  0.00000000E+00  0.00000000E+00
  0.00000000E+00  0.00000000E+00  0.00000000E+00
  0.00000000E+00  0.00000000E+00  0.00000000E+00
  0.00000000E+00  0.00000000E+00  0.00000000E+00
  0.00000000E+00  0.00000000E+00  0.00000000E+00
  0.00000000E+00  0.00000000E+00  0.00000000E+00
  0.00000000E+00  0.00000000E+00  0.00000000E+00
  0.00000000E+00  0.00000000E+00  0.00000000E+00
  0.00000000E+00  0.00000000E+00  0.00000000E+00
  0.00000000E+00  0.00000000E+00  0.00000000E+00
  0.00000000E+00  0.00000000E+00  0.00000000E+00
