Regular k-point mesh
0
Monkhurst-Pack
2 2 1
0 0 0.5
