 &CONTROL
      calculation = 'scf' ,
 outdir = '/tmp/1075.1.all.q/pwscf' ,
      pseudo_dir = '/home/jkendric/Data/PseudoPotentials' ,
      disk_io = 'minimal' ,
      nstep = 600,
      etot_conv_thr = 1.0D-7,
      forc_conv_thr = 1.0D-6,
 /
 &SYSTEM
      ibrav = 0,
      celldm(1) = 1.8897262,
      nat = 180
      ntyp = 5,
      ecutwfc = 60.D0 ,
      occupations = 'fixed' ,
 /
 &ELECTRONS
      conv_thr = 1.D-10 ,
      mixing_beta = 0.3D0 ,
 /
 &IONS
      ion_dynamics = 'bfgs'
      pot_extrapolation = 'second_order' ,
      wfc_extrapolation = 'second_order' ,
 /
CELL_PARAMETERS cubic 
  7.622  0      0
  0.0   10.285  0 
  0.0    0.0    21.428
ATOMIC_SPECIES
   Cl   1.00794  Cl.pbe-n-van.UPF
   C   12.01070  C.pbe-van_ak.UPF
   N   14.00674  N.pbe-van_ak.UPF
   O   15.99940  O.pbe-van_ak.UPF
   H    1.00794  H.pbe-van_ak.UPF
ATOMIC_POSITIONS crystal
Cl       0.241675369   0.050443536   0.822912594
C        0.323027065   0.352960018   0.695120598
C        0.930539767   0.331094455   0.370967847
C        0.767302522   0.405826418   0.350574759
C        0.621338871   0.310832437   0.331791160
C        0.589722825   0.202138487   0.379820702
C        0.722105013   0.094079652   0.361693642
C        1.184478926   0.388949628   0.430185432
C        1.313944882   0.493275285   0.443890368
C        1.305905416   0.616092180   0.415553215
C        1.429592097   0.711156075   0.430387275
C        1.561295057   0.684367894   0.473863670
C        0.486102632   0.272015924   0.677867673
C        1.570669717   0.562027094   0.502294067
C        1.448013244   0.466688285   0.487005155
C        1.084614056   0.280077334   0.265345503
C        1.117889663   0.259013497   0.154829468
C        0.548695863   0.164015000   0.241668962
H        0.739827604   0.304205289   0.242364862
H        0.857463118   0.070894073   0.271463176
H        1.080211594   0.159446225   0.343772265
H        0.902396284   0.277746580   0.414278176
H        0.719879199   0.466049751   0.389457795
C        0.430539767   0.168905545   0.629032153
H        0.797742921   0.470222830   0.310914220
H        0.501862472   0.363034606   0.318065418
H        0.454911694   0.165109663   0.376994612
H        0.609903946   0.238097173   0.427482140
H        0.651413134   0.005287117   0.348450308
H        0.812258603   0.068663466   0.399641408
H        1.202629851   0.637579622   0.382000580
H        1.419949717   0.806010185   0.407586036
H        1.657268774   0.758991549   0.485869081
H        1.672264280   0.541007230   0.536814365
C        0.267302522   0.094173582   0.649425241
H        1.456899563   0.370196271   0.507773894
H        1.045698719   0.344608832   0.138143575
H        1.256725356   0.282061347   0.161704096
H        1.102755077   0.177732277   0.122315017
H        0.611997617   0.102696857   0.206498025
H        0.465000703   0.236377543   0.219031399
H        0.471223979   0.103577933   0.273717878
O        0.434210877   0.575085186   0.885947154
O        0.316953372   0.717771938   0.955838003
O        0.301395636   0.636245886   0.767074830
C        0.121338871   0.189167563   0.668208840
O        0.461772636   0.783680767   0.712669875
N        0.811653466   0.763607997   0.775515545
C        0.676972935   0.852960018   0.804879402
C        0.513897368   0.772015924   0.822132327
C        0.569460233   0.668905545   0.870967847
C        0.732697478   0.594173582   0.850574759
C        0.878661129   0.689167563   0.831791160
C        0.910277175   0.797861513   0.879820702
C        0.777894987   0.905920348   0.861693642
C        0.315521074   0.611050372   0.930185432
C        0.089722825   0.297861513   0.620179298
C        0.186055118   0.506724715   0.943890368
C        0.194094584   0.383907820   0.915553215
C        0.070407903   0.288843925   0.930387275
C       -0.061295057   0.315632106   0.973863670
C       -0.070669717   0.437972906   1.002294067
C        0.051986756   0.533311715   0.987005155
C        0.415385944   0.719922666   0.765345503
C        0.382110337   0.740986503   0.654829468
C        0.951304137   0.835985000   0.741668962
H        0.760172396   0.695794711   0.742364862
C        0.222105013   0.405920348   0.638306358
H        0.642536882   0.929105927   0.771463176
H        0.419788406   0.840553775   0.843772265
H        0.597603716   0.722253420   0.914278176
H        0.780120801   0.533950249   0.889457795
H        0.702257079   0.529777170   0.810914220
H        0.998137528   0.636965394   0.818065418
H        1.045088306   0.834890337   0.876994612
H        0.890096054   0.761902827   0.927482140
H        0.848586866   0.994712883   0.848450308
H        0.687741397   0.931336534   0.899641408
C        0.684478926   0.111050372   0.569814568
H        0.297370149   0.362420378   0.882000580
H        0.080050283   0.193989815   0.907586036
H       -0.157268774   0.241008451   0.985869081
H       -0.172264280   0.458992770   1.036814365
H        0.043100437   0.629803729   1.007773894
H        0.454301281   0.655391168   0.638143575
H        0.243274644   0.717938653   0.661704096
H        0.397244923   0.822267723   0.622315017
H        0.888002383   0.897303143   0.706498025
H        1.034999297   0.763622457   0.719031399
C        0.813944882   0.006724715   0.556109632
H        1.028776021   0.896422067   0.773717878
C        0.805905416  -0.116092180   0.584446785
Cl       0.258324631   0.949556464   0.322912594
C        0.929592097  -0.211156075   0.569612725
C        1.061295057  -0.184367894   0.526136330
C        1.070669717  -0.062027094   0.497705933
C        0.948013244   0.033311715   0.512994845
C        0.584614056   0.219922666   0.734654497
C        0.617889663   0.240986503   0.845170532
C        0.048695863   0.335985000   0.758331038
H        0.239827604   0.195794711   0.757635138
H        0.357463118   0.429105927   0.728536824
H        0.580211594   0.340553775   0.656227735
Cl       0.741675369   0.449556464   0.177087406
H        0.402396284   0.222253420   0.585721824
H        0.219879199   0.033950249   0.610542205
H        0.297742921   0.029777170   0.689085780
H        0.001862472   0.136965394   0.681934582
H       -0.045088306   0.334890337   0.623005388
H        0.109903946   0.261902827   0.572517860
H        0.151413134   0.494712883   0.651549692
H        0.312258603   0.431336534   0.600358592
H        0.702629851  -0.137579622   0.617999420
H        0.919949717  -0.306010185   0.592413964
Cl       0.758324631   0.550443536   0.677087406
H        1.157268774  -0.258991549   0.514130919
H        1.172264280  -0.041007230   0.463185635
H        0.956899563   0.129803729   0.492226106
H        0.545698719   0.155391168   0.861856425
H        0.756725356   0.217938653   0.838295904
H        0.602755077   0.322267723   0.877684983
H        0.111997617   0.397303143   0.793501975
H       -0.034999297   0.263622457   0.780968601
H       -0.028776021   0.396422067   0.726282122
O       -0.065789123   0.924914814   0.114052846
O        0.565789123   0.075085186   0.614052846
O       -0.183046628   0.782228062   0.044161997
O       -0.198604364   0.863754114   0.232925170
O       -0.038227364   0.716319233   0.287330125
N        0.311653466   0.736392003   0.224484455
C        0.176972935   0.647039982   0.195120598
C        0.013897368   0.727984076   0.177867673
C        0.069460233   0.831094455   0.129032153
C        0.232697478   0.905826418   0.149425241
C        0.378661129   0.810832437   0.168208840
C        0.410277175   0.702138487   0.120179298
O        0.683046628   0.217771938   0.544161997
C        0.277894987   0.594079652   0.138306358
C       -0.184478926   0.888949628   0.069814568
C       -0.313944882   0.993275285   0.056109632
C       -0.305905416   1.116092180   0.084446785
C       -0.429592097   1.211156075   0.069612725
C       -0.561295057   1.184367894   0.026136330
C       -0.570669717   1.062027094  -0.002294067
C       -0.448013244   0.966688285   0.012994845
C       -0.084614056   0.780077334   0.234654497
C       -0.117889663   0.759013497   0.345170532
O        0.698604364   0.136245886   0.732925170
C        0.451304137   0.664015000   0.258331038
H        0.260172396   0.804205289   0.257635138
H        0.142536882   0.570894073   0.228536824
H       -0.080211594   0.659446225   0.156227735
H        0.097603716   0.777746580   0.085721824
H        0.280120801   0.966049751   0.110542205
H        0.202257079   0.970222830   0.189085780
H        0.498137528   0.863034606   0.181934582
H        0.545088306   0.665109663   0.123005388
H        0.390096054   0.738097173   0.072517860
O        0.538227364   0.283680767   0.787330125
H        0.348586866   0.505287117   0.151549692
H        0.187741397   0.568663466   0.100358592
H       -0.202629851   1.137579622   0.117999420
H       -0.419949717   1.306010185   0.092413964
H       -0.657268774   1.258991549   0.014130919
H       -0.672264280   1.041007230  -0.036814365
H       -0.456899563   0.870196271  -0.007773894
H       -0.045698719   0.844608832   0.361856425
H       -0.256725356   0.782061347   0.338295904
H       -0.102755077   0.677732277   0.377684983
N        0.188346534   0.263607997   0.724484455
H        0.388002383   0.602696857   0.293501975
H        0.534999297   0.736377543   0.280968601
H        0.528776021   0.603577933   0.226282122
O        1.065789123   0.424914814   0.385947154
O        1.183046628   0.282228062   0.455838003
O        1.198604364   0.363754114   0.267074830
O        1.038227364   0.216319233   0.212669875
N        0.688346534   0.236392003   0.275515545
C        0.823027065   0.147039982   0.304879402
C        0.986102632   0.227984076   0.322132327
K_POINTS automatic
 1 1 1 0 0 0
