%BLOCK LATTICE_CART
bohr
  9.0328908892114104E+000    0.0000000000000000E+000    0.0000000000000000E+000  
 -1.3601724567233302E+000    1.0447050202340757E+001    0.0000000000000000E+000  
 -2.6551796411133730E+000   -2.7334554152306625E+000    1.0861203960871769E+001  
%ENDBLOCK LATTICE_CART

%BLOCK POSITIONS_ABS
bohr
 O                   3.8066276218776278E+000   -1.0062621838421353E+000    4.7882869063526492E+000  
 O                   1.2109111694970778E+000    8.7198569709522324E+000    6.0729170545191202E+000  
 O                   5.2495387613954954E+000    9.0973322000203591E+000    1.5185450304444137E+000  
 O                  -2.3199997002078732E-001   -1.3837374129102593E+000    9.3426589304273584E+000  
 O                   1.6363481534311528E+000    6.4693357472422557E+000    1.5278995746588577E+000  
 O                   3.3811906379435550E+000    1.2442590398678330E+000    9.3333043862129124E+000  
 O                   4.8758947950074312E+000    5.6845092066748002E+000    4.3839370265458184E+000  
 O                   1.4164399636727310E-001    2.0290855804352903E+000    6.4772669343259546E+000  
 Na                 -8.1414530808708729E-001    2.7618034875025792E+000    2.2163827636443969E+000  
 Na                  5.8316840994617989E+000    4.9517912996075175E+000    8.6448211972273707E+000  
 S                   3.6802733666726768E+000    7.4841842200966520E+000    2.8648203620364581E+000  
 S                   1.3372654247020288E+000    2.2941056701344831E-001    7.9963835988353082E+000  
%ENDBLOCK POSITIONS_ABS

KPOINT_MP_GRID 7 6 5
FIX_ALL_CELL TRUE

# Commented out pseudopotential block for easy editing
%BLOCK SPECIES_POT
 Na  /home/software/PseudoPotentials/Castep/Na_00.recpot
 S   /home/software/PseudoPotentials/Castep/S_00.recpot
 O   /home/software/PseudoPotentials/Castep/O_00.recpot
%ENDBLOCK SPECIES_POT

%BLOCK SYMMETRY_OPS
# Symm. op. 1
  1.000000000000000   0.000000000000000   0.000000000000000 
  0.000000000000000   1.000000000000000   0.000000000000000 
 -0.000000000000000  -0.000000000000000   1.000000000000000 
  0.000000000000000   0.000000000000000   0.000000000000000 
# Symm. op. 2
 -1.000000000000000   0.000000000000000   0.000000000000000 
  0.000000000000000  -1.000000000000000   0.000000000000000 
  0.000000000000000   0.000000000000000  -1.000000000000000 
  0.000000000000000   0.000000000000000   0.000000000000000 
%ENDBLOCK SYMMETRY_OPS
%block phonon_kpoint_list
0.0 0.0 0.0
%endblock phonon_kpoint_list
%block phonon_gamma_directions
1.0 0.0 0.0
0.0 1.0 0.0
0.0 0.0 1.0
%endblock phonon_gamma_directions

