# CELL file written 14:38:52 (GMT+1.0) 18th May 2020 from run opt

%BLOCK lattice_cart
   ANG
     2.8395320    -1.6394046     0.0000000
     0.0000000     3.2788091    -0.0000000
     0.0000000    -0.0000000     5.3030802
%ENDBLOCK lattice_cart

%BLOCK cell_constraints
      1   1   3
      0   0   0
%ENDBLOCK cell_constraints

%BLOCK positions_frac
   O              0.333333333333333       0.666666666666667       0.380626         
   O              0.666666666666667       0.333333333333333       0.880626         
   Zn             0.333333333333333       0.666666666666667       0.001874         
   Zn             0.666666666666667       0.333333333333333       0.501874         
%ENDBLOCK positions_frac

FIX_COM : true

%BLOCK species_pot
   O       2|1.2|23|26|31|20NN:21NN(qc=9)
   Zn      3|1.8|24|28|32|40N:41N:32N1.5(qc=4.5,q2=9.5)
%ENDBLOCK species_pot

snap_to_symmetry : true
symmetry_tol     : 1.0e-8

kpoint_mp_grid :   11  11   6

phonon_kpoint_mp_grid :    1   1   1

