Generated by cif2cell 1.2.10 from COD re
   4.78000000000000     
     1.0000000000000000    0.0000000000000000    0.0000000000000000
    -0.1505799719498300    1.1565566694510141    0.0000000000000000
    -0.2939457227679600   -0.3026113620497080    1.2024061946595670
   Na   S    O 
     2     2     8
Direct
  0.0356213959663861  0.3143451854501397  0.2090038358127843
  0.9643786040336138  0.6856548145498603  0.7909961641872154
  0.6121953436576146  0.7776614374667246  0.2448401506521131
  0.3878046563423854  0.2223385625332756  0.7551598493478868
  0.5813787134129029  0.0386251832624441  0.4170869338348333
  0.4186212865870971  0.9613748167375559  0.5829130661651666
  0.7736722602569516  0.8961962614386918  0.1082311044664386
  0.2263277397430482  0.1038037385613083  0.8917688955335614
  0.3153209061170108  0.6482863200836787  0.1224970452343993
  0.6846790938829896  0.3517136799163211  0.8775029547656008
  0.7730834214106540  0.6388721378022463  0.3925028032171193
  0.2269165785893458  0.3611278621977538  0.6074971967828805
 
  0.00000000E+00  0.00000000E+00  0.00000000E+00
  0.00000000E+00  0.00000000E+00  0.00000000E+00
  0.00000000E+00  0.00000000E+00  0.00000000E+00
  0.00000000E+00  0.00000000E+00  0.00000000E+00
  0.00000000E+00  0.00000000E+00  0.00000000E+00
  0.00000000E+00  0.00000000E+00  0.00000000E+00
  0.00000000E+00  0.00000000E+00  0.00000000E+00
  0.00000000E+00  0.00000000E+00  0.00000000E+00
  0.00000000E+00  0.00000000E+00  0.00000000E+00
  0.00000000E+00  0.00000000E+00  0.00000000E+00
  0.00000000E+00  0.00000000E+00  0.00000000E+00
  0.00000000E+00  0.00000000E+00  0.00000000E+00
