Regular k-point mesh
0
Gamma
6 6 2
0 0 0.5
