Generated by cif2cell 2.0.0. Urea :  Gut
   5.5720000000000001     
     0.9905718341774735    0.0000000000000000    0.0000000000000000
     0.0000000000000000    0.9905718341774735    0.0000000000000000
     0.0000000000000000    0.0000000000000000    0.8344644391123900
   C    O    N    H 
     2     2     4     8
Direct
  0.0000000000000000  0.5000000000000000  0.3265996522306978
  0.5000000000000000  0.0000000000000000  0.6734003477693022
  0.0000000000000000  0.5000000000000000  0.6018054003721360
  0.5000000000000000  0.0000000000000000  0.3981945996278640
  0.1476362397409403  0.6476362397409403  0.1765620332444016
  0.6476362397409403  0.8523637602590597  0.8234379667555984
  0.8523637602590597  0.3523637602590597  0.1765620332444016
  0.3523637602590597  0.1476362397409403  0.8234379667555984
  0.2624275732382699  0.7624275732382699  0.2819315946976175
  0.7624275732382699  0.7375724267617301  0.7180684053023825
  0.7375724267617301  0.2375724267617301  0.2819315946976175
  0.2375724267617301  0.2624275732382699  0.7180684053023825
  0.1453747178307623  0.6453747178307552  0.9572939653180441
  0.6453747178307552  0.8546252821692448  0.0427060346819559
  0.8546252821692448  0.3546252821692448  0.9572939653180441
  0.3546252821692448  0.1453747178307623  0.0427060346819559

  0.00000000E+00  0.00000000E+00  0.00000000E+00
  0.00000000E+00  0.00000000E+00  0.00000000E+00
  0.00000000E+00  0.00000000E+00  0.00000000E+00
  0.00000000E+00  0.00000000E+00  0.00000000E+00
  0.00000000E+00  0.00000000E+00  0.00000000E+00
  0.00000000E+00  0.00000000E+00  0.00000000E+00
  0.00000000E+00  0.00000000E+00  0.00000000E+00
  0.00000000E+00  0.00000000E+00  0.00000000E+00
  0.00000000E+00  0.00000000E+00  0.00000000E+00
  0.00000000E+00  0.00000000E+00  0.00000000E+00
  0.00000000E+00  0.00000000E+00  0.00000000E+00
  0.00000000E+00  0.00000000E+00  0.00000000E+00
  0.00000000E+00  0.00000000E+00  0.00000000E+00
  0.00000000E+00  0.00000000E+00  0.00000000E+00
  0.00000000E+00  0.00000000E+00  0.00000000E+00
  0.00000000E+00  0.00000000E+00  0.00000000E+00
