Generated by cif2cell 2.0.0. Urea :  Gut
   5.5720000000000001     
     0.9905718341774735    0.0000000000000000    0.0000000000000000
     0.0000000000000000    0.9905718341774735    0.0000000000000000
     0.0000000000000000    0.0000000000000000    0.8344644391123900
   C    O    N    H 
     2     2     4     8
Direct
 -0.0000000000000000  0.5000000000000000  0.3265996522306944
  0.5000000000000000  0.0000000000000000  0.6734003477693054
 -0.0000000000000000  0.5000000000000000  0.6018054003721363
  0.5000000000000000  0.0000000000000000  0.3981945996278632
  0.1476362397409421  0.6476362397409403  0.1765620332444038
  0.6476362397409403  0.8523637602590597  0.8234379667555977
  0.8523637602590597  0.3523637602590576  0.1765620332444038
  0.3523637602590576  0.1476362397409421  0.8234379667555977
  0.2624275732382667  0.7624275732382673  0.2819315946976172
  0.7624275732382673  0.7375724267617327  0.7180684053023834
  0.7375724267617327  0.2375724267617328  0.2819315946976172
  0.2375724267617328  0.2624275732382667  0.7180684053023834
  0.1453747178307650  0.6453747178307577  0.9572939653180419
  0.6453747178307577  0.8546252821692423  0.0427060346819573
  0.8546252821692423  0.3546252821692414  0.9572939653180419
  0.3546252821692414  0.1453747178307650  0.0427060346819573

  0.00000000E+00  0.00000000E+00  0.00000000E+00
  0.00000000E+00  0.00000000E+00  0.00000000E+00
  0.00000000E+00  0.00000000E+00  0.00000000E+00
  0.00000000E+00  0.00000000E+00  0.00000000E+00
  0.00000000E+00  0.00000000E+00  0.00000000E+00
  0.00000000E+00  0.00000000E+00  0.00000000E+00
  0.00000000E+00  0.00000000E+00  0.00000000E+00
  0.00000000E+00  0.00000000E+00  0.00000000E+00
  0.00000000E+00  0.00000000E+00  0.00000000E+00
  0.00000000E+00  0.00000000E+00  0.00000000E+00
  0.00000000E+00  0.00000000E+00  0.00000000E+00
  0.00000000E+00  0.00000000E+00  0.00000000E+00
  0.00000000E+00  0.00000000E+00  0.00000000E+00
  0.00000000E+00  0.00000000E+00  0.00000000E+00
  0.00000000E+00  0.00000000E+00  0.00000000E+00
  0.00000000E+00  0.00000000E+00  0.00000000E+00
