# CELL file written 16:09:56 (GMT+1.0) 29th July 2026 from run optimise

%BLOCK lattice_cart
   ANG
       2.86445083179892       -1.65379145881956       0.179584979576716E-35
     -0.225158227779745E-21    3.30758291763911      -0.138134085904392E-51
      0.334933378858839E-35  -0.223110449354751E-51    5.34235909394806    
%ENDBLOCK lattice_cart

%BLOCK cell_constraints
      1   1   3
      0   0   0
%ENDBLOCK cell_constraints

%BLOCK positions_frac
   O                0.333333333333333       0.666666666666667       0.378851110069647
   O                0.666666666666667       0.333333333333333       0.878851110069647
   Zn               0.333333333333333       0.666666666666667      -0.000000807344860
   Zn               0.666666666666667       0.333333333333333       0.499999192655140
%ENDBLOCK positions_frac

FIX_COM : true

%BLOCK species_pot
   O         2|1.2|23|26|31|20NN:21NN(qc=9)
   Zn        3|1.8|24|28|32|40N:41N:32N1.5(qc=4.5,q2=9.5)
%ENDBLOCK species_pot

SYMMETRY_TOL :     0.001000

%BLOCK symmetry_ops
# Symm. op. 1       E
          1.000000000000000       0.000000000000000       0.000000000000000
          0.000000000000000       1.000000000000000       0.000000000000000
          0.000000000000000       0.000000000000000       1.000000000000000
          0.000000000000000       0.000000000000000       0.000000000000000
# Symm. op. 2     6_3
          0.500000000000000       0.866025403784438       0.000000000000000
         -0.866025403784439       0.500000000000000       0.000000000000000
          0.000000000000000       0.000000000000000       1.000000000000000
          0.000000000000001       0.000000000000000       0.500000000000000
# Symm. op. 3       3
         -0.500000000000000       0.866025403784438       0.000000000000000
         -0.866025403784439      -0.500000000000000       0.000000000000000
          0.000000000000000       0.000000000000000       1.000000000000000
          0.000000000000002       0.000000000000001       0.000000000000000
# Symm. op. 4     2_1
         -1.000000000000000      -0.000000000000000       0.000000000000000
          0.000000000000000      -1.000000000000000       0.000000000000000
          0.000000000000000       0.000000000000000       1.000000000000000
          0.000000000000002       0.000000000000002       0.500000000000000
# Symm. op. 5       3
         -0.500000000000000      -0.866025403784438       0.000000000000000
          0.866025403784439      -0.500000000000000       0.000000000000000
          0.000000000000000       0.000000000000000       1.000000000000000
          0.000000000000001       0.000000000000002       0.000000000000000
# Symm. op. 6     6_3
          0.500000000000000      -0.866025403784438       0.000000000000000
          0.866025403784439       0.500000000000000       0.000000000000000
          0.000000000000000       0.000000000000000       1.000000000000000
          0.000000000000000       0.000000000000001       0.500000000000000
# Symm. op. 7       c
          0.500000000000000       0.866025403784438       0.000000000000000
          0.866025403784439      -0.500000000000000       0.000000000000000
          0.000000000000000       0.000000000000000       1.000000000000000
          0.000000000000000       0.000000000000000       0.500000000000000
# Symm. op. 8       m
          1.000000000000000       0.000000000000000       0.000000000000000
          0.000000000000000      -1.000000000000000       0.000000000000000
          0.000000000000000       0.000000000000000       1.000000000000000
          0.000000000000000       0.000000000000001       0.000000000000000
# Symm. op. 9       c
          0.500000000000000      -0.866025403784438       0.000000000000000
         -0.866025403784439      -0.500000000000000       0.000000000000000
          0.000000000000000       0.000000000000000       1.000000000000000
          0.000000000000001       0.000000000000002       0.500000000000000
# Symm. op. 10      m
         -0.500000000000000      -0.866025403784438       0.000000000000000
         -0.866025403784439       0.500000000000000       0.000000000000000
          0.000000000000000       0.000000000000000       1.000000000000000
          0.000000000000002       0.000000000000002       0.000000000000000
# Symm. op. 11      c
         -1.000000000000000      -0.000000000000000       0.000000000000000
          0.000000000000000       1.000000000000000       0.000000000000000
          0.000000000000000       0.000000000000000       1.000000000000000
          0.000000000000002       0.000000000000001       0.500000000000000
# Symm. op. 12      m
         -0.500000000000000       0.866025403784438       0.000000000000000
          0.866025403784439       0.500000000000000       0.000000000000000
          0.000000000000000       0.000000000000000       1.000000000000000
          0.000000000000001       0.000000000000000       0.000000000000000
%ENDBLOCK symmetry_ops

kpoint_mp_grid :   11  11   6

phonon_kpoint_mp_grid :   11  11   6

phonon_kpoint_mp_offset :        0.000000000000000       0.000000000000000       0.083333333333333

