Generated by cif2cell 2.0.0. k-space resolution ~0.2/A
 0
Gamma
6 6 7
0 0 0
