Start at Thu 21 May 11:24:09 BST 2026
Copy and edit the input files to the local directory
zno.scf.in...................................
&CONTROL
  calculation  = "vc-relax",
  prefix       = "ZnO",
  pseudo_dir   = "/home/john/Data/PseudoPotentials/",
  outdir       = ".",
  nstep        = 50,
  etot_conv_thr= 2.0D-7,
  forc_conv_thr= 2.0D-6,
/
&SYSTEM
  ibrav=0, nat=4, ntyp= 2,
  occupations='fixed', 
  ecutwfc =140.0, !better 140 was 80
  celldm(1) = 6.141610
/
&ELECTRONS
  diagonalization = 'cg',
  mixing_mode='plain',
  mixing_beta = 0.3,
  startingwfc='atomic',
  conv_thr =  1.0d-10
/
&IONS
  ion_dynamics = 'bfgs',
  pot_extrapolation = 'none',
  wfc_extrapolation = 'none',
/
&CELL
  cell_dynamics = 'bfgs',
/
CELL_PARAMETERS alat
   0.873640933  -0.504396828  -0.000000000
   0.000000000   1.008793656   0.000000000
  -0.000000000   0.000000000   1.627462335
ATOMIC_SPECIES
  Zn 65.380  Zn_ONCV_PBE-1.2.upf
  O  15.999   O_ONCV_PBE-1.2.upf
ATOMIC_POSITIONS {crystal}
Zn            0.3333333333        0.6666666667        0.0016158154
Zn            0.6666666667        0.3333333333        0.5016158154
O             0.3333333333        0.6666666667        0.3808841846
O             0.6666666667        0.3333333333        0.8808841846

K_POINTS automatic
11 11 6 0 0 0
Running the following command
mpirun -np 8 /home/software/qespresso/pw.x -inp zno.scf.in

     Program PWSCF v.7.5 starts on 21May2026 at 11:24:11 

     This program is part of the open-source Quantum ESPRESSO suite
     for quantum simulation of materials; please cite
         "P. Giannozzi et al., J. Phys.:Condens. Matter 21 395502 (2009);
         "P. Giannozzi et al., J. Phys.:Condens. Matter 29 465901 (2017);
         "P. Giannozzi et al., J. Chem. Phys. 152 154105 (2020);
          URL http://www.quantum-espresso.org", 
     in publications or presentations arising from this work. More details at
     http://www.quantum-espresso.org/quote

     Parallel version (MPI), running on     8 processors

     MPI processes distributed on     1 nodes
     5056 MiB available memory on the printing compute node when the environment starts

     Reading input from zno.scf.in

     Current dimensions of program PWSCF are:
     Max number of different atomic species (ntypx) = 10
     Max number of k-points (npk) =  40000
     Max angular momentum in pseudopotentials (lmaxx) =  4

     File ./ZnO.update deleted, as requested
     Message from routine setup:
     using ibrav=0 with symmetry is DISCOURAGED, use correct ibrav instead

     R & G space division:  proc/nbgrp/npool/nimage =       8
     Subspace diagonalization in iterative solution of the eigenvalue problem:
     a serial algorithm will be used


     Parallelization info
     --------------------
     sticks:   dense  smooth     PW     G-vecs:    dense   smooth      PW
     Min         185     185     52                 9303     9303    1392
     Max         186     186     53                 9312     9312    1399
     Sum        1483    1483    421                74457    74457   11175

     Using Slab Decomposition



     bravais-lattice index     =            0
     lattice parameter (alat)  =       6.1416  a.u.
     unit-cell volume          =     332.2714 (a.u.)^3
     number of atoms/cell      =            4
     number of atomic types    =            2
     number of electrons       =        52.00
     number of Kohn-Sham states=           26
     kinetic-energy cutoff     =     140.0000  Ry
     charge density cutoff     =     560.0000  Ry
     scf convergence threshold =      1.0E-10
     mixing beta               =       0.3000
     number of iterations used =            8  plain     mixing
     energy convergence thresh.=      2.0E-07
     force convergence thresh. =      2.0E-06
     press convergence thresh. =      5.0E-01
     Exchange-correlation= PBE
                           (   1   4   3   4   0   0   0)
     nstep                     =           50


     celldm(1)=   6.141610  celldm(2)=   0.000000  celldm(3)=   0.000000
     celldm(4)=   0.000000  celldm(5)=   0.000000  celldm(6)=   0.000000

     crystal axes: (cart. coord. in units of alat)
               a(1) = (   0.873641  -0.504397  -0.000000 )  
               a(2) = (   0.000000   1.008794   0.000000 )  
               a(3) = (  -0.000000   0.000000   1.627462 )  

     reciprocal axes: (cart. coord. in units 2 pi/alat)
               b(1) = (  1.144635 -0.000000  0.000000 )  
               b(2) = (  0.572318  0.991283  0.000000 )  
               b(3) = (  0.000000 -0.000000  0.614454 )  


     PseudoPot. # 1 for Zn read from file:
     /home/john/Data/PseudoPotentials/Zn_ONCV_PBE-1.2.upf
     MD5 check sum: 732f41c0cd6489a4b50a33b4ec99a2d3
     Pseudo is Norm-conserving, Zval = 20.0
     Generated using ONCVPSP code by D. R. Hamann
     Using radial grid of  602 points,  6 beta functions with: 
                l(1) =   0
                l(2) =   0
                l(3) =   1
                l(4) =   1
                l(5) =   2
                l(6) =   2

     PseudoPot. # 2 for O  read from file:
     /home/john/Data/PseudoPotentials/O_ONCV_PBE-1.2.upf
     MD5 check sum: e36c48deb68f4e355fffe4602be2c42c
     Pseudo is Norm-conserving, Zval =  6.0
     Generated using ONCVPSP code by D. R. Hamann
     Using radial grid of  602 points,  4 beta functions with: 
                l(1) =   0
                l(2) =   0
                l(3) =   1
                l(4) =   1

     atomic species   valence    mass     pseudopotential
     Zn               20.00    65.38000     Zn( 1.00)
     O                 6.00    15.99900     O ( 1.00)

     12 Sym. Ops. (no inversion) found ( 6 have fractional translation)



   Cartesian axes

     site n.     atom                  positions (alat units)
         1        Zn     tau(   1) = (   0.2912136   0.5043968   0.0026297  )
         2        Zn     tau(   2) = (   0.5824273  -0.0000000   0.8163608  )
         3        O      tau(   3) = (   0.2912136   0.5043968   0.6198747  )
         4        O      tau(   4) = (   0.5824273  -0.0000000   1.4336058  )

     number of k points=    64
                       cart. coord. in units 2pi/alat
        k(    1) = (   0.0000000   0.0000000   0.0000000), wk =   0.0027548
        k(    2) = (   0.0000000   0.0000000   0.1024089), wk =   0.0055096
        k(    3) = (   0.0000000   0.0000000   0.2048178), wk =   0.0055096
        k(    4) = (   0.0000000   0.0000000  -0.3072268), wk =   0.0027548
        k(    5) = (   0.0520289   0.0901166   0.0000000), wk =   0.0165289
        k(    6) = (   0.0520289   0.0901166   0.1024089), wk =   0.0330579
        k(    7) = (   0.0520289   0.0901166   0.2048178), wk =   0.0330579
        k(    8) = (   0.0520289   0.0901166  -0.3072268), wk =   0.0165289
        k(    9) = (   0.1040577   0.1802333   0.0000000), wk =   0.0165289
        k(   10) = (   0.1040577   0.1802333   0.1024089), wk =   0.0330579
        k(   11) = (   0.1040577   0.1802333   0.2048178), wk =   0.0330579
        k(   12) = (   0.1040577   0.1802333  -0.3072268), wk =   0.0165289
        k(   13) = (   0.1560866   0.2703499   0.0000000), wk =   0.0165289
        k(   14) = (   0.1560866   0.2703499   0.1024089), wk =   0.0330579
        k(   15) = (   0.1560866   0.2703499   0.2048178), wk =   0.0330579
        k(   16) = (   0.1560866   0.2703499  -0.3072268), wk =   0.0165289
        k(   17) = (   0.2081155   0.3604665   0.0000000), wk =   0.0165289
        k(   18) = (   0.2081155   0.3604665   0.1024089), wk =   0.0330579
        k(   19) = (   0.2081155   0.3604665   0.2048178), wk =   0.0330579
        k(   20) = (   0.2081155   0.3604665  -0.3072268), wk =   0.0165289
        k(   21) = (   0.2601443   0.4505832   0.0000000), wk =   0.0165289
        k(   22) = (   0.2601443   0.4505832   0.1024089), wk =   0.0330579
        k(   23) = (   0.2601443   0.4505832   0.2048178), wk =   0.0330579
        k(   24) = (   0.2601443   0.4505832  -0.3072268), wk =   0.0165289
        k(   25) = (   0.1560866   0.0901166   0.0000000), wk =   0.0165289
        k(   26) = (   0.1560866   0.0901166   0.1024089), wk =   0.0330579
        k(   27) = (   0.1560866   0.0901166   0.2048178), wk =   0.0330579
        k(   28) = (   0.1560866   0.0901166  -0.3072268), wk =   0.0165289
        k(   29) = (   0.2081155   0.1802333   0.0000000), wk =   0.0330579
        k(   30) = (   0.2081155   0.1802333   0.1024089), wk =   0.0661157
        k(   31) = (   0.2081155   0.1802333   0.2048178), wk =   0.0661157
        k(   32) = (   0.2081155   0.1802333  -0.3072268), wk =   0.0330579
        k(   33) = (   0.2601443   0.2703499   0.0000000), wk =   0.0330579
        k(   34) = (   0.2601443   0.2703499   0.1024089), wk =   0.0661157
        k(   35) = (   0.2601443   0.2703499   0.2048178), wk =   0.0661157
        k(   36) = (   0.2601443   0.2703499  -0.3072268), wk =   0.0330579
        k(   37) = (   0.3121732   0.3604665   0.0000000), wk =   0.0330579
        k(   38) = (   0.3121732   0.3604665   0.1024089), wk =   0.0661157
        k(   39) = (   0.3121732   0.3604665   0.2048178), wk =   0.0661157
        k(   40) = (   0.3121732   0.3604665  -0.3072268), wk =   0.0330579
        k(   41) = (   0.3642020   0.4505832   0.0000000), wk =   0.0165289
        k(   42) = (   0.3642020   0.4505832   0.1024089), wk =   0.0330579
        k(   43) = (   0.3642020   0.4505832   0.2048178), wk =   0.0330579
        k(   44) = (   0.3642020   0.4505832  -0.3072268), wk =   0.0165289
        k(   45) = (   0.3121732   0.1802333   0.0000000), wk =   0.0165289
        k(   46) = (   0.3121732   0.1802333   0.1024089), wk =   0.0330579
        k(   47) = (   0.3121732   0.1802333   0.2048178), wk =   0.0330579
        k(   48) = (   0.3121732   0.1802333  -0.3072268), wk =   0.0165289
        k(   49) = (   0.3642020   0.2703499   0.0000000), wk =   0.0330579
        k(   50) = (   0.3642020   0.2703499   0.1024089), wk =   0.0661157
        k(   51) = (   0.3642020   0.2703499   0.2048178), wk =   0.0661157
        k(   52) = (   0.3642020   0.2703499  -0.3072268), wk =   0.0330579
        k(   53) = (   0.4162309   0.3604665   0.0000000), wk =   0.0330579
        k(   54) = (   0.4162309   0.3604665   0.1024089), wk =   0.0661157
        k(   55) = (   0.4162309   0.3604665   0.2048178), wk =   0.0661157
        k(   56) = (   0.4162309   0.3604665  -0.3072268), wk =   0.0330579
        k(   57) = (   0.4682598   0.2703499   0.0000000), wk =   0.0165289
        k(   58) = (   0.4682598   0.2703499   0.1024089), wk =   0.0330579
        k(   59) = (   0.4682598   0.2703499   0.2048178), wk =   0.0330579
        k(   60) = (   0.4682598   0.2703499  -0.3072268), wk =   0.0165289
        k(   61) = (   0.5202886   0.3604665   0.0000000), wk =   0.0165289
        k(   62) = (   0.5202886   0.3604665   0.1024089), wk =   0.0330579
        k(   63) = (   0.5202886   0.3604665   0.2048178), wk =   0.0330579
        k(   64) = (   0.5202886   0.3604665  -0.3072268), wk =   0.0165289

     Dense  grid:    74457 G-vectors     FFT dimensions: (  48,  48,  80)

     Estimated max dynamical RAM per process >      45.13 MB

     Estimated total dynamical RAM >     361.01 MB

     Initial potential from superposition of free atoms

     starting charge      51.9527, renormalised to      52.0000
     Starting wfcs are    0 atomic +   26 random wfcs

     total cpu time spent up to now is        2.5 secs

     Self-consistent Calculation

     iteration #  1     ecut=   140.00 Ry     beta= 0.30
     CG style diagonalization
     c_bands:  1 eigenvalues not converged
     c_bands:  1 eigenvalues not converged
     c_bands:  1 eigenvalues not converged
     ethr =  1.00E-02,  avg # of iterations = 11.3

     total cpu time spent up to now is       29.3 secs

     total energy              =    -863.42144396 Ry
     estimated scf accuracy    <       1.83770845 Ry

     iteration #  2     ecut=   140.00 Ry     beta= 0.30
     CG style diagonalization
     ethr =  3.53E-03,  avg # of iterations =  4.3

     total cpu time spent up to now is       38.7 secs

     total energy              =    -864.51855045 Ry
     estimated scf accuracy    <       0.21414807 Ry

     iteration #  3     ecut=   140.00 Ry     beta= 0.30
     CG style diagonalization
     ethr =  4.12E-04,  avg # of iterations =  3.7

     total cpu time spent up to now is       46.8 secs

     total energy              =    -864.71829047 Ry
     estimated scf accuracy    <       0.07222234 Ry

     iteration #  4     ecut=   140.00 Ry     beta= 0.30
     CG style diagonalization
     ethr =  1.39E-04,  avg # of iterations =  3.1

     total cpu time spent up to now is       53.6 secs

     total energy              =    -864.65607531 Ry
     estimated scf accuracy    <       0.12872567 Ry

     iteration #  5     ecut=   140.00 Ry     beta= 0.30
     CG style diagonalization
     ethr =  1.39E-04,  avg # of iterations =  4.5

     total cpu time spent up to now is       63.6 secs

     total energy              =    -864.69068573 Ry
     estimated scf accuracy    <       0.04849062 Ry

     iteration #  6     ecut=   140.00 Ry     beta= 0.30
     CG style diagonalization
     ethr =  9.33E-05,  avg # of iterations =  3.4

     total cpu time spent up to now is       70.7 secs

     total energy              =    -864.68974019 Ry
     estimated scf accuracy    <       0.00786396 Ry

     iteration #  7     ecut=   140.00 Ry     beta= 0.30
     CG style diagonalization
     ethr =  1.51E-05,  avg # of iterations =  4.5

     total cpu time spent up to now is       80.7 secs

     total energy              =    -864.69662204 Ry
     estimated scf accuracy    <       0.00498900 Ry

     iteration #  8     ecut=   140.00 Ry     beta= 0.30
     CG style diagonalization
     ethr =  9.59E-06,  avg # of iterations =  3.0

     total cpu time spent up to now is       87.5 secs

     total energy              =    -864.69452236 Ry
     estimated scf accuracy    <       0.00325318 Ry

     iteration #  9     ecut=   140.00 Ry     beta= 0.30
     CG style diagonalization
     ethr =  6.26E-06,  avg # of iterations =  4.0

     total cpu time spent up to now is       97.7 secs

     total energy              =    -864.69588321 Ry
     estimated scf accuracy    <       0.00156648 Ry

     iteration # 10     ecut=   140.00 Ry     beta= 0.30
     CG style diagonalization
     ethr =  3.01E-06,  avg # of iterations =  3.3

     total cpu time spent up to now is      106.2 secs

     total energy              =    -864.69590223 Ry
     estimated scf accuracy    <       0.00027083 Ry

     iteration # 11     ecut=   140.00 Ry     beta= 0.30
     CG style diagonalization
     ethr =  5.21E-07,  avg # of iterations =  3.9

     total cpu time spent up to now is      115.3 secs

     total energy              =    -864.69597376 Ry
     estimated scf accuracy    <       0.00000087 Ry

     iteration # 12     ecut=   140.00 Ry     beta= 0.30
     CG style diagonalization
     ethr =  1.68E-09,  avg # of iterations =  5.3

     total cpu time spent up to now is      126.9 secs

     total energy              =    -864.69597531 Ry
     estimated scf accuracy    <       0.00000062 Ry

     iteration # 13     ecut=   140.00 Ry     beta= 0.30
     CG style diagonalization
     ethr =  1.20E-09,  avg # of iterations =  3.7

     total cpu time spent up to now is      134.5 secs

     total energy              =    -864.69597529 Ry
     estimated scf accuracy    <       0.00000018 Ry

     iteration # 14     ecut=   140.00 Ry     beta= 0.30
     CG style diagonalization
     ethr =  3.41E-10,  avg # of iterations =  4.1

     total cpu time spent up to now is      143.4 secs

     total energy              =    -864.69597535 Ry
     estimated scf accuracy    <       0.00000014 Ry

     iteration # 15     ecut=   140.00 Ry     beta= 0.30
     CG style diagonalization
     ethr =  2.77E-10,  avg # of iterations =  3.3

     total cpu time spent up to now is      150.2 secs

     total energy              =    -864.69597534 Ry
     estimated scf accuracy    <       0.00000002 Ry

     iteration # 16     ecut=   140.00 Ry     beta= 0.30
     CG style diagonalization
     ethr =  4.69E-11,  avg # of iterations =  4.3

     total cpu time spent up to now is      159.2 secs

     total energy              =    -864.69597535 Ry
     estimated scf accuracy    <       0.00000004 Ry

     iteration # 17     ecut=   140.00 Ry     beta= 0.30
     CG style diagonalization
     ethr =  4.69E-11,  avg # of iterations =  3.8

     total cpu time spent up to now is      167.3 secs

     total energy              =    -864.69597536 Ry
     estimated scf accuracy    <          1.5E-10 Ry

     iteration # 18     ecut=   140.00 Ry     beta= 0.30
     CG style diagonalization
     ethr =  2.87E-13,  avg # of iterations =  5.4

     total cpu time spent up to now is      178.3 secs

     total energy              =    -864.69597536 Ry
     estimated scf accuracy    <          1.0E-09 Ry

     iteration # 19     ecut=   140.00 Ry     beta= 0.30
     CG style diagonalization
     ethr =  2.87E-13,  avg # of iterations =  3.7

     total cpu time spent up to now is      186.7 secs

     total energy              =    -864.69597536 Ry
     estimated scf accuracy    <          3.5E-10 Ry

     iteration # 20     ecut=   140.00 Ry     beta= 0.30
     CG style diagonalization
     ethr =  2.87E-13,  avg # of iterations =  4.2

     total cpu time spent up to now is      196.1 secs

     End of self-consistent calculation

          k = 0.0000 0.0000 0.0000 (  9307 PWs)   bands (ev):

  -113.9924-113.9923 -68.1950 -68.1925 -68.1922 -68.1922 -68.1918 -68.1918
    -8.2932  -7.6223   3.8711   3.8711   3.9145   4.0497   4.0497   4.1125
     4.9142   4.9142   5.1058   5.1058   5.3907   8.6997   8.6997   9.3708
     9.4457   9.4457

          k = 0.0000 0.0000 0.1024 (  9289 PWs)   bands (ev):

  -113.9924-113.9923 -68.1948 -68.1926 -68.1922 -68.1922 -68.1918 -68.1918
    -8.2504  -7.6694   3.8731   3.8776   3.8776   3.9648   4.0316   4.0316
     4.9317   4.9317   5.0982   5.0982   5.7214   8.7508   8.7508   8.8150
     9.3970   9.3970

          k = 0.0000 0.0000 0.2048 (  9290 PWs)   bands (ev):

  -113.9924-113.9923 -68.1944 -68.1931 -68.1921 -68.1921 -68.1919 -68.1919
    -8.1319  -7.7965   3.7800   3.7834   3.8990   3.8990   3.9873   3.9873
     4.9762   4.9762   5.0730   5.0730   6.4173   8.0211   8.8896   8.8896
     9.2629   9.2629

          k = 0.0000 0.0000-0.3072 (  9362 PWs)   bands (ev):

  -113.9923-113.9923 -68.1937 -68.1937 -68.1920 -68.1920 -68.1920 -68.1920
    -7.9664  -7.9664   3.7260   3.7260   3.9375   3.9375   3.9375   3.9375
     5.0293   5.0293   5.0293   5.0293   7.2145   7.2145   9.0774   9.0774
     9.0774   9.0774

          k = 0.0520 0.0901 0.0000 (  9299 PWs)   bands (ev):

  -113.9924-113.9923 -68.1949 -68.1925 -68.1924 -68.1923 -68.1919 -68.1918
    -8.2505  -7.6031   3.8284   3.8961   3.9421   4.0455   4.0849   4.1711
     4.8973   4.9118   5.1094   5.1484   5.3812   8.4033   8.5940   8.9100
     9.3194   9.3896

          k = 0.0520 0.0901 0.1024 (  9292 PWs)   bands (ev):

  -113.9924-113.9923 -68.1948 -68.1927 -68.1924 -68.1923 -68.1920 -68.1919
    -8.2089  -7.6483   3.8069   3.9033   3.9232   3.9665   4.0661   4.0770
     4.9178   4.9292   5.1009   5.1181   5.7398   8.4445   8.6029   8.6486
     9.2624   9.3377

          k = 0.0520 0.0901 0.2048 (  9319 PWs)   bands (ev):

  -113.9924-113.9923 -68.1943 -68.1931 -68.1923 -68.1922 -68.1920 -68.1919
    -8.0941  -7.7705   3.7406   3.7691   3.9267   3.9342   4.0161   4.0199
     4.9690   4.9738   5.0735   5.0814   6.4407   7.9383   8.6329   8.7970
     9.0898   9.1948

          k = 0.0520 0.0901-0.3072 (  9326 PWs)   bands (ev):

  -113.9923-113.9923 -68.1937 -68.1937 -68.1921 -68.1921 -68.1921 -68.1921
    -7.9342  -7.9342   3.6996   3.6996   3.9659   3.9659   3.9677   3.9677
     5.0278   5.0278   5.0298   5.0298   7.2089   7.2089   8.8565   8.8565
     8.9973   8.9973

          k = 0.1041 0.1802 0.0000 (  9308 PWs)   bands (ev):

  -113.9924-113.9923 -68.1948 -68.1927 -68.1926 -68.1924 -68.1923 -68.1919
    -8.1319  -7.5535   3.7352   3.9597   3.9770   4.0688   4.1851   4.3378
     4.8529   4.9151   5.1176   5.2803   5.3547   7.6629   8.2303   8.3122
     9.1601   9.2333

          k = 0.1041 0.1802 0.1024 (  9309 PWs)   bands (ev):

  -113.9924-113.9923 -68.1947 -68.1928 -68.1927 -68.1924 -68.1923 -68.1919
    -8.0942  -7.5931   3.7101   3.9177   3.9696   4.0356   4.1639   4.2066
     4.8841   4.9314   5.1069   5.1673   5.8021   7.7148   8.0981   8.3763
     9.0857   9.1735

          k = 0.1041 0.1802 0.2048 (  9310 PWs)   bands (ev):

  -113.9923-113.9923 -68.1943 -68.1933 -68.1926 -68.1923 -68.1923 -68.1920
    -7.9903  -7.7009   3.6549   3.7417   4.0001   4.0164   4.1002   4.1112
     4.9540   4.9737   5.0753   5.1054   6.4839   7.5973   8.0775   8.5492
     8.8179   9.0089

          k = 0.1041 0.1802-0.3072 (  9308 PWs)   bands (ev):

  -113.9923-113.9923 -68.1938 -68.1938 -68.1924 -68.1924 -68.1922 -68.1922
    -7.8466  -7.8466   3.6417   3.6417   4.0422   4.0422   4.0502   4.0502
     5.0271   5.0271   5.0343   5.0343   7.1202   7.1202   8.4189   8.4189
     8.7811   8.7811

          k = 0.1561 0.2703 0.0000 (  9300 PWs)   bands (ev):

  -113.9923-113.9922 -68.1945 -68.1932 -68.1928 -68.1927 -68.1926 -68.1920
    -7.9653  -7.4947   3.6549   3.9668   4.0320   4.1788   4.3327   4.5406
     4.8131   4.9449   5.1270   5.3255   5.4957   6.8251   7.5918   7.9389
     8.8935   9.0175

          k = 0.1561 0.2703 0.1024 (  9283 PWs)   bands (ev):

  -113.9923-113.9923 -68.1945 -68.1932 -68.1931 -68.1926 -68.1925 -68.1921
    -7.9337  -7.5259   3.6296   3.8931   4.0471   4.1562   4.3064   4.3764
     4.8595   4.9574   5.1146   5.2204   5.8985   6.9193   7.5145   8.0158
     8.8670   8.9482

          k = 0.1561 0.2703 0.2048 (  9311 PWs)   bands (ev):

  -113.9923-113.9923 -68.1943 -68.1935 -68.1929 -68.1926 -68.1924 -68.1922
    -7.8473  -7.6116   3.5823   3.7121   4.0915   4.1327   4.2255   4.2399
     4.9502   4.9912   5.0814   5.1406   6.4104   7.0015   7.6074   8.2210
     8.6490   8.7576

          k = 0.1561 0.2703-0.3072 (  9302 PWs)   bands (ev):

  -113.9923-113.9923 -68.1939 -68.1939 -68.1927 -68.1927 -68.1923 -68.1923
    -7.7293  -7.7293   3.5898   3.5898   4.1547   4.1547   4.1603   4.1603
     5.0364   5.0364   5.0505   5.0505   6.7709   6.7709   8.1544   8.1544
     8.4929   8.4929

          k = 0.2081 0.3605 0.0000 (  9278 PWs)   bands (ev):

  -113.9923-113.9922 -68.1943 -68.1936 -68.1933 -68.1929 -68.1927 -68.1921
    -7.7934  -7.4540   3.6442   3.9527   4.0834   4.3350   4.4892   4.5794
     4.8876   5.0052   5.1376   5.3425   5.6620   6.2090   7.0399   7.5793
     8.5526   8.8078

          k = 0.2081 0.3605 0.1024 (  9296 PWs)   bands (ev):

  -113.9923-113.9922 -68.1943 -68.1936 -68.1935 -68.1928 -68.1927 -68.1922
    -7.7695  -7.4754   3.6144   3.8711   4.1048   4.3085   4.4550   4.4776
     4.9103   5.0122   5.1249   5.2730   5.8222   6.3715   7.0710   7.6700
     8.5893   8.7303

          k = 0.2081 0.3605 0.2048 (  9285 PWs)   bands (ev):

  -113.9923-113.9923 -68.1943 -68.1939 -68.1932 -68.1928 -68.1926 -68.1923
    -7.7050  -7.5350   3.5608   3.6901   4.1667   4.2759   4.3537   4.3674
     4.9913   5.0322   5.0953   5.1841   6.0286   6.4090   7.4962   7.9085
     8.5142   8.5167

          k = 0.2081 0.3605-0.3072 (  9292 PWs)   bands (ev):

  -113.9923-113.9923 -68.1942 -68.1942 -68.1929 -68.1929 -68.1924 -68.1924
    -7.6188  -7.6188   3.5675   3.5675   4.2607   4.2607   4.2893   4.2893
     5.0616   5.0616   5.0897   5.0897   6.2331   6.2331   8.1171   8.1171
     8.2185   8.2185

          k = 0.2601 0.4506 0.0000 (  9302 PWs)   bands (ev):

  -113.9923-113.9922 -68.1941 -68.1939 -68.1936 -68.1931 -68.1928 -68.1922
    -7.6721  -7.4464   3.6904   3.9467   4.1061   4.4786   4.5157   4.5928
     4.9535   5.0621   5.1464   5.2737   5.6749   6.0607   6.7512   7.3504
     8.2651   8.6773

          k = 0.2601 0.4506 0.1024 (  9303 PWs)   bands (ev):

  -113.9923-113.9922 -68.1943 -68.1938 -68.1936 -68.1930 -68.1927 -68.1922
    -7.6552  -7.4595   3.6529   3.8524   4.1316   4.4514   4.4761   4.5518
     5.0027   5.0649   5.1340   5.2622   5.6490   6.0461   7.0022   7.4516
     8.3474   8.5949

          k = 0.2601 0.4506 0.2048 (  9297 PWs)   bands (ev):

  -113.9923-113.9923 -68.1944 -68.1941 -68.1932 -68.1929 -68.1926 -68.1923
    -7.6103  -7.4970   3.5814   3.6726   4.2056   4.4083   4.4286   4.4463
     5.0736   5.0877   5.1097   5.2229   5.6873   5.9339   7.5847   7.7136
     8.3675   8.3970

          k = 0.2601 0.4506-0.3072 (  9310 PWs)   bands (ev):

  -113.9923-113.9923 -68.1944 -68.1944 -68.1930 -68.1930 -68.1925 -68.1925
    -7.5518  -7.5518   3.5676   3.5676   4.3180   4.3180   4.4013   4.4013
     5.0884   5.0884   5.1635   5.1635   5.7964   5.7964   8.0486   8.0486
     8.1374   8.1374

          k = 0.1561 0.0901 0.0000 (  9301 PWs)   bands (ev):

  -113.9924-113.9923 -68.1948 -68.1926 -68.1926 -68.1924 -68.1922 -68.1919
    -8.1698  -7.5687   3.7763   3.9180   3.9827   4.0449   4.1571   4.2867
     4.8703   4.9088   5.1145   5.2373   5.3633   7.9648   8.1884   8.5492
     9.2156   9.2596

          k = 0.1561 0.0901 0.1024 (  9303 PWs)   bands (ev):

  -113.9924-113.9923 -68.1947 -68.1928 -68.1926 -68.1924 -68.1922 -68.1919
    -8.1308  -7.6102   3.7503   3.8979   3.9741   3.9912   4.1371   4.1662
     4.8959   4.9274   5.1044   5.1537   5.7809   8.0353   8.1053   8.5046
     9.1425   9.2013

          k = 0.1561 0.0901 0.2048 (  9304 PWs)   bands (ev):

  -113.9924-113.9923 -68.1943 -68.1932 -68.1925 -68.1923 -68.1922 -68.1920
    -8.0233  -7.7227   3.6883   3.7469   3.9745   3.9783   4.0744   4.0887
     4.9590   4.9719   5.0739   5.0986   6.4756   7.7324   8.2399   8.6034
     8.9019   9.0417

          k = 0.1561 0.0901-0.3072 (  9304 PWs)   bands (ev):

  -113.9923-113.9923 -68.1938 -68.1938 -68.1923 -68.1923 -68.1921 -68.1921
    -7.8742  -7.8742   3.6616   3.6616   3.9946   3.9946   4.0437   4.0437
     5.0258   5.0258   5.0336   5.0336   7.1649   7.1649   8.5482   8.5482
     8.8268   8.8268

          k = 0.2081 0.1802 0.0000 (  9292 PWs)   bands (ev):

  -113.9924-113.9923 -68.1946 -68.1930 -68.1927 -68.1927 -68.1925 -68.1920
    -8.0269  -7.5146   3.7107   3.9402   4.0228   4.1088   4.2868   4.4712
     4.8291   4.9221   5.1223   5.3362   5.4192   7.2361   7.6529   8.1092
     9.0088   9.0342

          k = 0.2081 0.1802 0.1024 (  9296 PWs)   bands (ev):

  -113.9923-113.9923 -68.1945 -68.1930 -68.1929 -68.1926 -68.1924 -68.1921
    -7.9929  -7.5490   3.6832   3.8908   4.0181   4.0854   4.2628   4.3132
     4.8664   4.9426   5.1106   5.2064   5.8694   7.3116   7.6144   8.1235
     8.9526   8.9784

          k = 0.2081 0.1802 0.2048 (  9311 PWs)   bands (ev):

  -113.9923-113.9923 -68.1943 -68.1934 -68.1928 -68.1925 -68.1923 -68.1921
    -7.8997  -7.6432   3.6271   3.7275   4.0354   4.0670   4.1779   4.2076
     4.9497   4.9826   5.0781   5.1305   6.4761   7.2745   7.7494   8.2638
     8.7175   8.7863

          k = 0.2081 0.1802-0.3072 (  9306 PWs)   bands (ev):

  -113.9923-113.9923 -68.1939 -68.1939 -68.1926 -68.1926 -68.1923 -68.1923
    -7.7717  -7.7717   3.6200   3.6200   4.0627   4.0627   4.1542   4.1542
     5.0294   5.0294   5.0474   5.0474   6.9512   6.9512   8.2319   8.2319
     8.5308   8.5308

          k = 0.2601 0.2703 0.0000 (  9304 PWs)   bands (ev):

  -113.9923-113.9922 -68.1944 -68.1934 -68.1931 -68.1929 -68.1927 -68.1921
    -7.8565  -7.4655   3.6813   3.9586   4.0590   4.2447   4.4407   4.6000
     4.8287   4.9664   5.1337   5.3365   5.6347   6.5072   7.2013   7.5973
     8.7000   8.7900

          k = 0.2601 0.2703 0.1024 (  9281 PWs)   bands (ev):

  -113.9923-113.9922 -68.1944 -68.1934 -68.1933 -68.1928 -68.1926 -68.1922
    -7.8296  -7.4907   3.6520   3.8917   4.0704   4.2232   4.4087   4.4439
     4.8652   4.9899   5.1220   5.2612   5.9139   6.6359   7.1906   7.6665
     8.6837   8.7392

          k = 0.2601 0.2703 0.2048 (  9294 PWs)   bands (ev):

  -113.9923-113.9923 -68.1943 -68.1937 -68.1931 -68.1928 -68.1925 -68.1923
    -7.7564  -7.5605   3.5973   3.7210   4.1138   4.1952   4.2879   4.3349
     4.9596   5.0202   5.0940   5.1742   6.2424   6.6910   7.5027   7.8864
     8.4707   8.6079

          k = 0.2601 0.2703-0.3072 (  9288 PWs)   bands (ev):

  -113.9923-113.9923 -68.1941 -68.1941 -68.1929 -68.1929 -68.1924 -68.1924
    -7.6576  -7.6576   3.6012   3.6012   4.1705   4.1705   4.2619   4.2619
     5.0442   5.0442   5.0839   5.0839   6.4951   6.4951   8.0609   8.0609
     8.2632   8.2632

          k = 0.3122 0.3605 0.0000 (  9290 PWs)   bands (ev):

  -113.9923-113.9922 -68.1941 -68.1937 -68.1935 -68.1931 -68.1928 -68.1922
    -7.7057  -7.4450   3.7093   3.9940   4.0892   4.3912   4.5431   4.5963
     4.9203   5.0103   5.1490   5.3625   5.6352   6.1743   6.8354   7.2532
     8.3445   8.6005

          k = 0.3122 0.3605 0.1024 (  9286 PWs)   bands (ev):

  -113.9923-113.9922 -68.1943 -68.1937 -68.1935 -68.1930 -68.1928 -68.1923
    -7.6866  -7.4606   3.6760   3.9052   4.1088   4.3662   4.4916   4.5339
     4.9393   5.0370   5.1401   5.3180   5.6857   6.2416   6.9849   7.3672
     8.3959   8.5310

          k = 0.3122 0.3605 0.2048 (  9292 PWs)   bands (ev):

  -113.9923-113.9923 -68.1943 -68.1940 -68.1932 -68.1929 -68.1926 -68.1924
    -7.6356  -7.5049   3.6121   3.7226   4.1710   4.3307   4.4037   4.4276
     5.0086   5.0613   5.1288   5.2360   5.8212   6.1611   7.4516   7.7026
     8.2374   8.4706

          k = 0.3122 0.3605-0.3072 (  9298 PWs)   bands (ev):

  -113.9923-113.9923 -68.1943 -68.1943 -68.1930 -68.1930 -68.1925 -68.1925
    -7.5686  -7.5686   3.6075   3.6075   4.2679   4.2679   4.3669   4.3669
     5.0600   5.0600   5.1589   5.1589   5.9919   5.9919   7.8725   7.8725
     8.2024   8.2024

          k = 0.3642 0.4506 0.0000 (  9294 PWs)   bands (ev):

  -113.9923-113.9922 -68.1940 -68.1938 -68.1936 -68.1932 -68.1929 -68.1923
    -7.6379  -7.4480   3.7350   4.0282   4.0983   4.4729   4.5111   4.6365
     4.9510   5.0428   5.1652   5.2216   5.7414   6.0481   6.6922   7.2015
     8.1499   8.5286

          k = 0.3642 0.4506 0.1024 (  9294 PWs)   bands (ev):

  -113.9923-113.9922 -68.1942 -68.1938 -68.1936 -68.1930 -68.1928 -68.1923
    -7.6233  -7.4587   3.7003   3.9180   4.1180   4.4522   4.4887   4.5809
     5.0047   5.0488   5.1647   5.2275   5.6976   5.9831   6.9380   7.3436
     8.2305   8.4536

          k = 0.3642 0.4506 0.2048 (  9306 PWs)   bands (ev):

  -113.9923-113.9923 -68.1944 -68.1941 -68.1932 -68.1929 -68.1927 -68.1924
    -7.5846  -7.4893   3.6301   3.7231   4.1844   4.4101   4.4511   4.4688
     5.0595   5.0603   5.1905   5.2358   5.6771   5.8526   7.3769   7.7547
     8.1321   8.3981

          k = 0.3642 0.4506-0.3072 (  9302 PWs)   bands (ev):

  -113.9923-113.9923 -68.1943 -68.1943 -68.1930 -68.1930 -68.1925 -68.1925
    -7.5349  -7.5349   3.6152   3.6152   4.2959   4.2959   4.4346   4.4346
     5.0669   5.0669   5.2271   5.2271   5.7362   5.7362   7.7847   7.7847
     8.2060   8.2060

          k = 0.3122 0.1802 0.0000 (  9304 PWs)   bands (ev):

  -113.9923-113.9922 -68.1944 -68.1933 -68.1931 -68.1928 -68.1926 -68.1922
    -7.8795  -7.4704   3.7538   3.8927   4.1028   4.1759   4.4289   4.5938
     4.8095   4.9479   5.1321   5.3404   5.6193   6.8642   7.0113   7.6236
     8.7112   8.7663

          k = 0.3122 0.1802 0.1024 (  9288 PWs)   bands (ev):

  -113.9923-113.9923 -68.1944 -68.1933 -68.1932 -68.1929 -68.1925 -68.1922
    -7.8515  -7.4970   3.7173   3.8604   4.0946   4.1515   4.3988   4.4134
     4.8532   4.9825   5.1211   5.2618   5.9360   6.9882   7.0312   7.6329
     8.6268   8.7725

          k = 0.3122 0.1802 0.2048 (  9291 PWs)   bands (ev):

  -113.9923-113.9923 -68.1943 -68.1937 -68.1930 -68.1928 -68.1925 -68.1923
    -7.7753  -7.5704   3.6471   3.7359   4.0939   4.1227   4.2647   4.3259
     4.9523   5.0175   5.0948   5.1749   6.3363   6.8542   7.5314   7.7781
     8.4020   8.6336

          k = 0.3122 0.1802-0.3072 (  9290 PWs)   bands (ev):

  -113.9923-113.9923 -68.1940 -68.1940 -68.1928 -68.1928 -68.1924 -68.1924
    -7.6722  -7.6722   3.6350   3.6350   4.1117   4.1117   4.2565   4.2565
     5.0395   5.0395   5.0860   5.0860   6.6263   6.6263   8.0101   8.0101
     8.2446   8.2446

          k = 0.3642 0.2703 0.0000 (  9294 PWs)   bands (ev):

  -113.9923-113.9922 -68.1941 -68.1935 -68.1934 -68.1930 -68.1929 -68.1924
    -7.7264  -7.4444   3.8087   3.9441   4.1505   4.2901   4.5594   4.6601
     4.8327   4.9620   5.1519   5.4071   5.6525   6.4228   6.8504   7.0085
     8.3778   8.4585

          k = 0.3642 0.2703 0.1024 (  9287 PWs)   bands (ev):

  -113.9923-113.9922 -68.1942 -68.1936 -68.1934 -68.1930 -68.1927 -68.1924
    -7.7060  -7.4616   3.7769   3.9010   4.1391   4.2637   4.4995   4.5196
     4.8670   5.0210   5.1455   5.3458   5.7937   6.4723   6.9986   7.0953
     8.2961   8.5039

          k = 0.3642 0.2703 0.2048 (  9292 PWs)   bands (ev):

  -113.9923-113.9923 -68.1943 -68.1939 -68.1931 -68.1930 -68.1926 -68.1925
    -7.6514  -7.5100   3.7022   3.7802   4.1418   4.2198   4.3644   4.4195
     4.9664   5.0525   5.1401   5.2538   6.0025   6.3858   7.2673   7.5837
     8.0562   8.5046

          k = 0.3642 0.2703-0.3072 (  9292 PWs)   bands (ev):

  -113.9923-113.9923 -68.1942 -68.1942 -68.1930 -68.1930 -68.1926 -68.1926
    -7.5791  -7.5791   3.6843   3.6843   4.1858   4.1858   4.3446   4.3446
     5.0428   5.0428   5.1701   5.1701   6.2035   6.2035   7.6148   7.6148
     8.2244   8.2244

          k = 0.4162 0.3605 0.0000 (  9287 PWs)   bands (ev):

  -113.9923-113.9922 -68.1939 -68.1937 -68.1935 -68.1932 -68.1930 -68.1925
    -7.6139  -7.4489   3.8062   4.0850   4.2255   4.3675   4.6005   4.6700
     4.9209   4.9728   5.1734   5.2654   5.7177   6.1530   6.4679   7.1114
     8.0283   8.2695

          k = 0.4162 0.3605 0.1024 (  9288 PWs)   bands (ev):

  -113.9923-113.9922 -68.1941 -68.1938 -68.1935 -68.1931 -68.1929 -68.1925
    -7.6009  -7.4578   3.7897   4.0364   4.1274   4.3742   4.5530   4.5990
     4.9404   5.0156   5.1811   5.2971   5.6890   6.1160   6.6105   7.3233
     8.0282   8.2728

          k = 0.4162 0.3605 0.2048 (  9289 PWs)   bands (ev):

  -113.9923-113.9923 -68.1943 -68.1941 -68.1932 -68.1930 -68.1928 -68.1926
    -7.5666  -7.4838   3.7383   3.8463   4.1271   4.3309   4.4841   4.4905
     4.9925   5.0344   5.2210   5.3191   5.7187   5.9852   6.9568   7.7143
     7.8713   8.3685

          k = 0.4162 0.3605-0.3072 (  9290 PWs)   bands (ev):

  -113.9923-113.9923 -68.1943 -68.1943 -68.1931 -68.1931 -68.1926 -68.1926
    -7.5231  -7.5231   3.7296   3.7296   4.2197   4.2197   4.4580   4.4580
     5.0240   5.0240   5.2804   5.2804   5.8370   5.8370   7.3701   7.3701
     8.2440   8.2440

          k = 0.4683 0.2703 0.0000 (  9278 PWs)   bands (ev):

  -113.9923-113.9922 -68.1939 -68.1936 -68.1935 -68.1933 -68.1931 -68.1927
    -7.6056  -7.4490   3.8499   4.0872   4.2981   4.3249   4.6469   4.8097
     4.8225   4.9187   5.1692   5.3128   5.6811   6.1242   6.4232   7.0640
     8.0422   8.0912

          k = 0.4683 0.2703 0.1024 (  9301 PWs)   bands (ev):

  -113.9923-113.9922 -68.1941 -68.1937 -68.1933 -68.1933 -68.1929 -68.1927
    -7.5931  -7.4573   3.8603   4.0050   4.2298   4.3094   4.5905   4.6269
     4.8754   5.0068   5.1772   5.3638   5.6919   6.1694   6.4468   7.2886
     7.9358   8.2029

          k = 0.4683 0.2703 0.2048 (  9274 PWs)   bands (ev):

  -113.9923-113.9923 -68.1942 -68.1940 -68.1932 -68.1931 -68.1927 -68.1927
    -7.5603  -7.4818   3.8504   3.8639   4.1198   4.2585   4.4936   4.5051
     4.9555   5.0241   5.2223   5.3649   5.7882   6.0865   6.7251   7.5193
     7.8904   8.3525

          k = 0.4683 0.2703-0.3072 (  9260 PWs)   bands (ev):

  -113.9923-113.9923 -68.1942 -68.1942 -68.1931 -68.1931 -68.1927 -68.1927
    -7.5189  -7.5189   3.8062   3.8062   4.1629   4.1629   4.4658   4.4658
     5.0038   5.0038   5.2977   5.2977   5.9370   5.9370   7.1439   7.1439
     8.2550   8.2550

          k = 0.5203 0.3605 0.0000 (  9314 PWs)   bands (ev):

  -113.9923-113.9922 -68.1937 -68.1936 -68.1935 -68.1933 -68.1933 -68.1928
    -7.5384  -7.4728   3.8430   4.1691   4.2870   4.5432   4.7094   4.7517
     4.8852   4.9627   5.1197   5.1396   5.8501   5.9360   6.0667   7.4024
     7.7504   7.9286

          k = 0.5203 0.3605 0.1024 (  9302 PWs)   bands (ev):

  -113.9923-113.9922 -68.1940 -68.1938 -68.1935 -68.1931 -68.1931 -68.1928
    -7.5317  -7.4749   3.8634   4.1090   4.1813   4.4599   4.6457   4.6756
     4.9072   4.9756   5.1892   5.2300   5.8096   6.0086   6.1053   7.6006
     7.7146   7.9882

          k = 0.5203 0.3605 0.2048 (  9276 PWs)   bands (ev):

  -113.9923-113.9923 -68.1942 -68.1941 -68.1933 -68.1930 -68.1928 -68.1928
    -7.5152  -7.4823   3.8854   3.9806   4.0372   4.2992   4.5831   4.5929
     4.9298   4.9698   5.3076   5.3569   5.7651   5.8948   6.4882   7.3999
     8.0012   8.2240

          k = 0.5203 0.3605-0.3072 (  9258 PWs)   bands (ev):

  -113.9923-113.9923 -68.1942 -68.1942 -68.1932 -68.1932 -68.1927 -68.1927
    -7.4964  -7.4964   3.8736   3.8736   4.1319   4.1319   4.5672   4.5672
     4.9514   4.9514   5.3821   5.3821   5.7959   5.7959   6.9528   6.9528
     8.2698   8.2698

     highest occupied level (ev):     9.4457

!    total energy              =    -864.69597536 Ry
     estimated scf accuracy    <          4.1E-11 Ry

     The total energy is the sum of the following terms:
     one-electron contribution =    -582.50071387 Ry
     hartree contribution      =     306.69890579 Ry
     xc contribution           =     -87.13552974 Ry
     ewald contribution        =    -501.75863754 Ry

     convergence has been achieved in  20 iterations

     Forces acting on atoms (cartesian axes, Ry/au):

     atom    1 type  1   force =     0.00000000    0.00000000   -0.00000049
     atom    2 type  1   force =     0.00000000    0.00000000   -0.00000049
     atom    3 type  2   force =    -0.00000000    0.00000000    0.00000049
     atom    4 type  2   force =     0.00000000    0.00000000    0.00000049

     Total force =     0.000001     Total SCF correction =     0.000000


     Computing stress (Cartesian axis) and pressure

          total   stress  (Ry/bohr**3)                   (kbar)     P=       -0.03
  -0.00000018  -0.00000000   0.00000000           -0.03       -0.00        0.00
  -0.00000000  -0.00000018   0.00000000           -0.00       -0.03        0.00
   0.00000000   0.00000000  -0.00000029            0.00        0.00       -0.04


     BFGS Geometry Optimization
     Energy error            =      1.2E-09 Ry
     Gradient error          =      4.9E-07 Ry/Bohr
     Cell gradient error     =      4.3E-02 kbar

     bfgs converged in   1 scf cycles and   0 bfgs steps
     (criteria: energy <  2.0E-07 Ry, force <  2.0E-06 Ry/Bohr, cell <  5.0E-01 kbar)

     End of BFGS Geometry Optimization

     Final enthalpy           =    -864.6959753580 Ry
Begin final coordinates
     new unit-cell volume =    332.27140 a.u.^3 (    49.23754 Ang^3 )
     density =      5.48902 g/cm^3

CELL_PARAMETERS (alat=  6.14161000)
   0.873640933  -0.504396828  -0.000000000
   0.000000000   1.008793656   0.000000000
  -0.000000000   0.000000000   1.627462335

ATOMIC_POSITIONS (crystal)
Zn               0.3333333333        0.6666666667        0.0016158154
Zn               0.6666666667        0.3333333333        0.5016158154
O                0.3333333333        0.6666666667        0.3808841846
O                0.6666666667        0.3333333333        0.8808841846
End final coordinates



     Writing config-only to output data dir ./ZnO.save/ :
     XML data file

     Final scf calculation at the relaxed structure.
     The G-vectors are recalculated for the final unit cell
     Results may differ from those at the preceding step.

     Parallelization info
     --------------------
     sticks:   dense  smooth     PW     G-vecs:    dense   smooth      PW
     Min         185     185     52                 9303     9303    1392
     Max         186     186     53                 9312     9312    1399
     Sum        1483    1483    421                74457    74457   11175

     Using Slab Decomposition



     bravais-lattice index     =            0
     lattice parameter (alat)  =       6.1416  a.u.
     unit-cell volume          =     332.2714 (a.u.)^3
     number of atoms/cell      =            4
     number of atomic types    =            2
     number of electrons       =        52.00
     number of Kohn-Sham states=           26
     kinetic-energy cutoff     =     140.0000  Ry
     charge density cutoff     =     560.0000  Ry
     scf convergence threshold =      1.0E-10
     mixing beta               =       0.3000
     number of iterations used =            8  plain     mixing
     press convergence thresh. =      5.0E-01
     Exchange-correlation= PBE
                           (   1   4   3   4   0   0   0)

     celldm(1)=   6.141610  celldm(2)=   0.000000  celldm(3)=   0.000000
     celldm(4)=   0.000000  celldm(5)=   0.000000  celldm(6)=   0.000000

     crystal axes: (cart. coord. in units of alat)
               a(1) = (   0.873641  -0.504397  -0.000000 )  
               a(2) = (   0.000000   1.008794   0.000000 )  
               a(3) = (  -0.000000   0.000000   1.627462 )  

     reciprocal axes: (cart. coord. in units 2 pi/alat)
               b(1) = (  1.144635 -0.000000  0.000000 )  
               b(2) = (  0.572318  0.991283  0.000000 )  
               b(3) = (  0.000000 -0.000000  0.614454 )  


     PseudoPot. # 1 for Zn read from file:
     /home/john/Data/PseudoPotentials/Zn_ONCV_PBE-1.2.upf
     MD5 check sum: 732f41c0cd6489a4b50a33b4ec99a2d3
     Pseudo is Norm-conserving, Zval = 20.0
     Generated using ONCVPSP code by D. R. Hamann
     Using radial grid of  602 points,  6 beta functions with: 
                l(1) =   0
                l(2) =   0
                l(3) =   1
                l(4) =   1
                l(5) =   2
                l(6) =   2

     PseudoPot. # 2 for O  read from file:
     /home/john/Data/PseudoPotentials/O_ONCV_PBE-1.2.upf
     MD5 check sum: e36c48deb68f4e355fffe4602be2c42c
     Pseudo is Norm-conserving, Zval =  6.0
     Generated using ONCVPSP code by D. R. Hamann
     Using radial grid of  602 points,  4 beta functions with: 
                l(1) =   0
                l(2) =   0
                l(3) =   1
                l(4) =   1

     atomic species   valence    mass     pseudopotential
     Zn               20.00    65.38000     Zn( 1.00)
     O                 6.00    15.99900     O ( 1.00)

     12 Sym. Ops. (no inversion) found ( 6 have fractional translation)



   Cartesian axes

     site n.     atom                  positions (alat units)
         1        Zn     tau(   1) = (   0.2912136   0.5043968   0.0026297  )
         2        Zn     tau(   2) = (   0.5824273  -0.0000000   0.8163608  )
         3        O      tau(   3) = (   0.2912136   0.5043968   0.6198747  )
         4        O      tau(   4) = (   0.5824273  -0.0000000   1.4336058  )

     number of k points=    64
                       cart. coord. in units 2pi/alat
        k(    1) = (   0.0000000   0.0000000   0.0000000), wk =   0.0027548
        k(    2) = (   0.0000000   0.0000000   0.1024089), wk =   0.0055096
        k(    3) = (   0.0000000   0.0000000   0.2048178), wk =   0.0055096
        k(    4) = (   0.0000000   0.0000000  -0.3072268), wk =   0.0027548
        k(    5) = (   0.0520289   0.0901166   0.0000000), wk =   0.0165289
        k(    6) = (   0.0520289   0.0901166   0.1024089), wk =   0.0330579
        k(    7) = (   0.0520289   0.0901166   0.2048178), wk =   0.0330579
        k(    8) = (   0.0520289   0.0901166  -0.3072268), wk =   0.0165289
        k(    9) = (   0.1040577   0.1802333   0.0000000), wk =   0.0165289
        k(   10) = (   0.1040577   0.1802333   0.1024089), wk =   0.0330579
        k(   11) = (   0.1040577   0.1802333   0.2048178), wk =   0.0330579
        k(   12) = (   0.1040577   0.1802333  -0.3072268), wk =   0.0165289
        k(   13) = (   0.1560866   0.2703499   0.0000000), wk =   0.0165289
        k(   14) = (   0.1560866   0.2703499   0.1024089), wk =   0.0330579
        k(   15) = (   0.1560866   0.2703499   0.2048178), wk =   0.0330579
        k(   16) = (   0.1560866   0.2703499  -0.3072268), wk =   0.0165289
        k(   17) = (   0.2081155   0.3604665   0.0000000), wk =   0.0165289
        k(   18) = (   0.2081155   0.3604665   0.1024089), wk =   0.0330579
        k(   19) = (   0.2081155   0.3604665   0.2048178), wk =   0.0330579
        k(   20) = (   0.2081155   0.3604665  -0.3072268), wk =   0.0165289
        k(   21) = (   0.2601443   0.4505832   0.0000000), wk =   0.0165289
        k(   22) = (   0.2601443   0.4505832   0.1024089), wk =   0.0330579
        k(   23) = (   0.2601443   0.4505832   0.2048178), wk =   0.0330579
        k(   24) = (   0.2601443   0.4505832  -0.3072268), wk =   0.0165289
        k(   25) = (   0.1560866   0.0901166   0.0000000), wk =   0.0165289
        k(   26) = (   0.1560866   0.0901166   0.1024089), wk =   0.0330579
        k(   27) = (   0.1560866   0.0901166   0.2048178), wk =   0.0330579
        k(   28) = (   0.1560866   0.0901166  -0.3072268), wk =   0.0165289
        k(   29) = (   0.2081155   0.1802333   0.0000000), wk =   0.0330579
        k(   30) = (   0.2081155   0.1802333   0.1024089), wk =   0.0661157
        k(   31) = (   0.2081155   0.1802333   0.2048178), wk =   0.0661157
        k(   32) = (   0.2081155   0.1802333  -0.3072268), wk =   0.0330579
        k(   33) = (   0.2601443   0.2703499   0.0000000), wk =   0.0330579
        k(   34) = (   0.2601443   0.2703499   0.1024089), wk =   0.0661157
        k(   35) = (   0.2601443   0.2703499   0.2048178), wk =   0.0661157
        k(   36) = (   0.2601443   0.2703499  -0.3072268), wk =   0.0330579
        k(   37) = (   0.3121732   0.3604665   0.0000000), wk =   0.0330579
        k(   38) = (   0.3121732   0.3604665   0.1024089), wk =   0.0661157
        k(   39) = (   0.3121732   0.3604665   0.2048178), wk =   0.0661157
        k(   40) = (   0.3121732   0.3604665  -0.3072268), wk =   0.0330579
        k(   41) = (   0.3642020   0.4505832   0.0000000), wk =   0.0165289
        k(   42) = (   0.3642020   0.4505832   0.1024089), wk =   0.0330579
        k(   43) = (   0.3642020   0.4505832   0.2048178), wk =   0.0330579
        k(   44) = (   0.3642020   0.4505832  -0.3072268), wk =   0.0165289
        k(   45) = (   0.3121732   0.1802333   0.0000000), wk =   0.0165289
        k(   46) = (   0.3121732   0.1802333   0.1024089), wk =   0.0330579
        k(   47) = (   0.3121732   0.1802333   0.2048178), wk =   0.0330579
        k(   48) = (   0.3121732   0.1802333  -0.3072268), wk =   0.0165289
        k(   49) = (   0.3642020   0.2703499   0.0000000), wk =   0.0330579
        k(   50) = (   0.3642020   0.2703499   0.1024089), wk =   0.0661157
        k(   51) = (   0.3642020   0.2703499   0.2048178), wk =   0.0661157
        k(   52) = (   0.3642020   0.2703499  -0.3072268), wk =   0.0330579
        k(   53) = (   0.4162309   0.3604665   0.0000000), wk =   0.0330579
        k(   54) = (   0.4162309   0.3604665   0.1024089), wk =   0.0661157
        k(   55) = (   0.4162309   0.3604665   0.2048178), wk =   0.0661157
        k(   56) = (   0.4162309   0.3604665  -0.3072268), wk =   0.0330579
        k(   57) = (   0.4682598   0.2703499   0.0000000), wk =   0.0165289
        k(   58) = (   0.4682598   0.2703499   0.1024089), wk =   0.0330579
        k(   59) = (   0.4682598   0.2703499   0.2048178), wk =   0.0330579
        k(   60) = (   0.4682598   0.2703499  -0.3072268), wk =   0.0165289
        k(   61) = (   0.5202886   0.3604665   0.0000000), wk =   0.0165289
        k(   62) = (   0.5202886   0.3604665   0.1024089), wk =   0.0330579
        k(   63) = (   0.5202886   0.3604665   0.2048178), wk =   0.0330579
        k(   64) = (   0.5202886   0.3604665  -0.3072268), wk =   0.0165289

     Dense  grid:    74457 G-vectors     FFT dimensions: (  48,  48,  80)

     Estimated max dynamical RAM per process >      45.27 MB

     Estimated total dynamical RAM >     362.15 MB

     Initial potential from superposition of free atoms

     starting charge      51.9527, renormalised to      52.0000
     Starting wfcs are    0 atomic +   26 random wfcs

     total cpu time spent up to now is      202.4 secs

     Self-consistent Calculation

     iteration #  1     ecut=   140.00 Ry     beta= 0.30
     CG style diagonalization
     c_bands:  3 eigenvalues not converged
     c_bands:  4 eigenvalues not converged
     c_bands:  4 eigenvalues not converged
     c_bands:  5 eigenvalues not converged
     c_bands:  2 eigenvalues not converged
     c_bands:  2 eigenvalues not converged
     c_bands:  5 eigenvalues not converged
     c_bands:  3 eigenvalues not converged
     c_bands:  2 eigenvalues not converged
     c_bands:  4 eigenvalues not converged
     c_bands:  1 eigenvalues not converged
     c_bands:  2 eigenvalues not converged
     c_bands:  3 eigenvalues not converged
     c_bands:  4 eigenvalues not converged
     c_bands:  1 eigenvalues not converged
     c_bands:  2 eigenvalues not converged
     c_bands:  1 eigenvalues not converged
     c_bands:  1 eigenvalues not converged
     c_bands:  3 eigenvalues not converged
     c_bands:  2 eigenvalues not converged
     c_bands:  1 eigenvalues not converged
     c_bands:  1 eigenvalues not converged
     c_bands:  3 eigenvalues not converged
     c_bands:  3 eigenvalues not converged
     c_bands:  3 eigenvalues not converged
     c_bands:  3 eigenvalues not converged
     c_bands:  2 eigenvalues not converged
     c_bands:  2 eigenvalues not converged
     c_bands:  1 eigenvalues not converged
     c_bands:  1 eigenvalues not converged
     c_bands:  3 eigenvalues not converged
     c_bands:  4 eigenvalues not converged
     c_bands:  2 eigenvalues not converged
     ethr =  1.00E-06,  avg # of iterations = 29.3

     total cpu time spent up to now is      265.1 secs

     total energy              =    -864.56262263 Ry
     estimated scf accuracy    <       0.86448576 Ry

     iteration #  2     ecut=   140.00 Ry     beta= 0.30
     CG style diagonalization
     ethr =  1.66E-03,  avg # of iterations =  3.5

     total cpu time spent up to now is      272.5 secs

     total energy              =    -864.69071686 Ry
     estimated scf accuracy    <       0.03254301 Ry

     iteration #  3     ecut=   140.00 Ry     beta= 0.30
     CG style diagonalization
     ethr =  6.26E-05,  avg # of iterations =  3.8

     total cpu time spent up to now is      281.2 secs

     total energy              =    -864.69521212 Ry
     estimated scf accuracy    <       0.01180401 Ry

     iteration #  4     ecut=   140.00 Ry     beta= 0.30
     CG style diagonalization
     ethr =  2.27E-05,  avg # of iterations =  3.3

     total cpu time spent up to now is      288.7 secs

     total energy              =    -864.69590418 Ry
     estimated scf accuracy    <       0.00178891 Ry

     iteration #  5     ecut=   140.00 Ry     beta= 0.30
     CG style diagonalization
     ethr =  3.44E-06,  avg # of iterations =  3.3

     total cpu time spent up to now is      296.5 secs

     total energy              =    -864.69586688 Ry
     estimated scf accuracy    <       0.00038502 Ry

     iteration #  6     ecut=   140.00 Ry     beta= 0.30
     CG style diagonalization
     ethr =  7.40E-07,  avg # of iterations =  3.7

     total cpu time spent up to now is      305.3 secs

     total energy              =    -864.69597654 Ry
     estimated scf accuracy    <       0.00001950 Ry

     iteration #  7     ecut=   140.00 Ry     beta= 0.30
     CG style diagonalization
     ethr =  3.75E-08,  avg # of iterations =  4.8

     total cpu time spent up to now is      316.8 secs

     total energy              =    -864.69598128 Ry
     estimated scf accuracy    <       0.00004545 Ry

     iteration #  8     ecut=   140.00 Ry     beta= 0.30
     CG style diagonalization
     ethr =  3.75E-08,  avg # of iterations =  3.0

     total cpu time spent up to now is      323.7 secs

     total energy              =    -864.69596761 Ry
     estimated scf accuracy    <       0.00002843 Ry

     iteration #  9     ecut=   140.00 Ry     beta= 0.30
     CG style diagonalization
     ethr =  3.75E-08,  avg # of iterations =  4.0

     total cpu time spent up to now is      333.4 secs

     total energy              =    -864.69597522 Ry
     estimated scf accuracy    <       0.00000083 Ry

     iteration # 10     ecut=   140.00 Ry     beta= 0.30
     CG style diagonalization
     ethr =  1.59E-09,  avg # of iterations =  3.8

     total cpu time spent up to now is      342.6 secs

     total energy              =    -864.69597533 Ry
     estimated scf accuracy    <       0.00000020 Ry

     iteration # 11     ecut=   140.00 Ry     beta= 0.30
     CG style diagonalization
     ethr =  3.84E-10,  avg # of iterations =  3.5

     total cpu time spent up to now is      350.9 secs

     total energy              =    -864.69597534 Ry
     estimated scf accuracy    <       0.00000002 Ry

     iteration # 12     ecut=   140.00 Ry     beta= 0.30
     CG style diagonalization
     ethr =  4.76E-11,  avg # of iterations =  4.4

     total cpu time spent up to now is      361.5 secs

     total energy              =    -864.69597536 Ry
     estimated scf accuracy    <       0.00000002 Ry

     iteration # 13     ecut=   140.00 Ry     beta= 0.30
     CG style diagonalization
     ethr =  3.37E-11,  avg # of iterations =  3.5

     total cpu time spent up to now is      369.5 secs

     total energy              =    -864.69597536 Ry
     estimated scf accuracy    <          1.1E-09 Ry

     iteration # 14     ecut=   140.00 Ry     beta= 0.30
     CG style diagonalization
     ethr =  2.03E-12,  avg # of iterations =  4.0

     total cpu time spent up to now is      379.1 secs

     total energy              =    -864.69597536 Ry
     estimated scf accuracy    <          7.6E-10 Ry

     iteration # 15     ecut=   140.00 Ry     beta= 0.30
     CG style diagonalization
     ethr =  1.47E-12,  avg # of iterations =  4.0

     total cpu time spent up to now is      388.8 secs

     total energy              =    -864.69597536 Ry
     estimated scf accuracy    <          2.9E-10 Ry

     iteration # 16     ecut=   140.00 Ry     beta= 0.30
     CG style diagonalization
     ethr =  5.55E-13,  avg # of iterations =  3.3

     total cpu time spent up to now is      398.2 secs

     End of self-consistent calculation

          k = 0.0000 0.0000 0.0000 (  9307 PWs)   bands (ev):

  -113.9924-113.9923 -68.1950 -68.1925 -68.1923 -68.1923 -68.1918 -68.1918
    -8.2932  -7.6223   3.8711   3.8711   3.9145   4.0497   4.0497   4.1125
     4.9142   4.9142   5.1058   5.1058   5.3907   8.6997   8.6997   9.3708
     9.4457   9.4457

          k = 0.0000 0.0000 0.1024 (  9289 PWs)   bands (ev):

  -113.9924-113.9923 -68.1949 -68.1927 -68.1922 -68.1922 -68.1919 -68.1919
    -8.2504  -7.6694   3.8731   3.8776   3.8776   3.9648   4.0316   4.0316
     4.9317   4.9317   5.0982   5.0982   5.7214   8.7507   8.7507   8.8149
     9.3970   9.3970

          k = 0.0000 0.0000 0.2048 (  9290 PWs)   bands (ev):

  -113.9924-113.9923 -68.1944 -68.1931 -68.1922 -68.1922 -68.1919 -68.1919
    -8.1319  -7.7966   3.7800   3.7834   3.8990   3.8990   3.9873   3.9873
     4.9762   4.9762   5.0730   5.0730   6.4173   8.0211   8.8896   8.8896
     9.2628   9.2628

          k = 0.0000 0.0000-0.3072 (  9362 PWs)   bands (ev):

  -113.9924-113.9924 -68.1938 -68.1938 -68.1920 -68.1920 -68.1920 -68.1920
    -7.9664  -7.9664   3.7259   3.7259   3.9375   3.9375   3.9375   3.9375
     5.0293   5.0293   5.0293   5.0293   7.2145   7.2145   9.0774   9.0774
     9.0774   9.0774

          k = 0.0520 0.0901 0.0000 (  9299 PWs)   bands (ev):

  -113.9924-113.9923 -68.1950 -68.1925 -68.1924 -68.1923 -68.1920 -68.1919
    -8.2505  -7.6031   3.8284   3.8961   3.9420   4.0455   4.0849   4.1711
     4.8973   4.9117   5.1094   5.1484   5.3812   8.4033   8.5939   8.9100
     9.3194   9.3896

          k = 0.0520 0.0901 0.1024 (  9292 PWs)   bands (ev):

  -113.9924-113.9923 -68.1948 -68.1927 -68.1924 -68.1923 -68.1920 -68.1919
    -8.2090  -7.6483   3.8069   3.9033   3.9232   3.9665   4.0661   4.0770
     4.9178   4.9291   5.1008   5.1181   5.7398   8.4445   8.6029   8.6486
     9.2624   9.3377

          k = 0.0520 0.0901 0.2048 (  9319 PWs)   bands (ev):

  -113.9924-113.9923 -68.1944 -68.1932 -68.1923 -68.1922 -68.1921 -68.1920
    -8.0942  -7.7705   3.7405   3.7691   3.9267   3.9342   4.0161   4.0199
     4.9690   4.9738   5.0734   5.0814   6.4407   7.9383   8.6328   8.7970
     9.0898   9.1948

          k = 0.0520 0.0901-0.3072 (  9326 PWs)   bands (ev):

  -113.9924-113.9924 -68.1938 -68.1938 -68.1922 -68.1922 -68.1921 -68.1921
    -7.9342  -7.9342   3.6996   3.6996   3.9659   3.9659   3.9677   3.9677
     5.0278   5.0278   5.0297   5.0297   7.2089   7.2089   8.8564   8.8564
     8.9972   8.9972

          k = 0.1041 0.1802 0.0000 (  9308 PWs)   bands (ev):

  -113.9924-113.9923 -68.1948 -68.1928 -68.1926 -68.1924 -68.1924 -68.1919
    -8.1319  -7.5535   3.7351   3.9597   3.9770   4.0688   4.1851   4.3378
     4.8529   4.9151   5.1175   5.2803   5.3546   7.6628   8.2302   8.3122
     9.1600   9.2333

          k = 0.1041 0.1802 0.1024 (  9309 PWs)   bands (ev):

  -113.9924-113.9923 -68.1947 -68.1928 -68.1927 -68.1924 -68.1923 -68.1920
    -8.0942  -7.5932   3.7101   3.9177   3.9696   4.0356   4.1639   4.2065
     4.8841   4.9314   5.1068   5.1673   5.8021   7.7148   8.0980   8.3762
     9.0857   9.1735

          k = 0.1041 0.1802 0.2048 (  9310 PWs)   bands (ev):

  -113.9924-113.9923 -68.1943 -68.1933 -68.1926 -68.1923 -68.1923 -68.1921
    -7.9903  -7.7009   3.6548   3.7417   4.0000   4.0164   4.1001   4.1112
     4.9540   4.9737   5.0752   5.1054   6.4839   7.5972   8.0775   8.5492
     8.8178   9.0089

          k = 0.1041 0.1802-0.3072 (  9308 PWs)   bands (ev):

  -113.9924-113.9924 -68.1938 -68.1938 -68.1925 -68.1925 -68.1922 -68.1922
    -7.8466  -7.8466   3.6417   3.6417   4.0421   4.0421   4.0502   4.0502
     5.0271   5.0271   5.0343   5.0343   7.1202   7.1202   8.4189   8.4189
     8.7811   8.7811

          k = 0.1561 0.2703 0.0000 (  9300 PWs)   bands (ev):

  -113.9924-113.9923 -68.1946 -68.1932 -68.1929 -68.1928 -68.1926 -68.1920
    -7.9653  -7.4947   3.6549   3.9668   4.0320   4.1788   4.3327   4.5406
     4.8130   4.9449   5.1270   5.3255   5.4957   6.8251   7.5918   7.9389
     8.8935   9.0175

          k = 0.1561 0.2703 0.1024 (  9283 PWs)   bands (ev):

  -113.9924-113.9923 -68.1945 -68.1932 -68.1931 -68.1926 -68.1926 -68.1921
    -7.9337  -7.5260   3.6296   3.8931   4.0471   4.1562   4.3064   4.3764
     4.8595   4.9574   5.1146   5.2204   5.8985   6.9193   7.5144   8.0157
     8.8670   8.9482

          k = 0.1561 0.2703 0.2048 (  9311 PWs)   bands (ev):

  -113.9924-113.9923 -68.1943 -68.1936 -68.1930 -68.1926 -68.1925 -68.1922
    -7.8473  -7.6117   3.5823   3.7121   4.0915   4.1327   4.2255   4.2399
     4.9502   4.9912   5.0814   5.1406   6.4103   7.0015   7.6074   8.2210
     8.6490   8.7576

          k = 0.1561 0.2703-0.3072 (  9302 PWs)   bands (ev):

  -113.9923-113.9923 -68.1940 -68.1940 -68.1928 -68.1928 -68.1923 -68.1923
    -7.7293  -7.7293   3.5898   3.5898   4.1547   4.1547   4.1602   4.1602
     5.0364   5.0364   5.0504   5.0504   6.7709   6.7709   8.1544   8.1544
     8.4928   8.4928

          k = 0.2081 0.3605 0.0000 (  9278 PWs)   bands (ev):

  -113.9923-113.9923 -68.1943 -68.1937 -68.1933 -68.1930 -68.1927 -68.1921
    -7.7934  -7.4541   3.6442   3.9527   4.0833   4.3350   4.4892   4.5794
     4.8876   5.0052   5.1376   5.3425   5.6619   6.2090   7.0399   7.5793
     8.5526   8.8078

          k = 0.2081 0.3605 0.1024 (  9296 PWs)   bands (ev):

  -113.9923-113.9923 -68.1944 -68.1936 -68.1935 -68.1929 -68.1927 -68.1922
    -7.7695  -7.4755   3.6144   3.8711   4.1047   4.3085   4.4550   4.4776
     4.9103   5.0122   5.1249   5.2730   5.8222   6.3714   7.0709   7.6700
     8.5893   8.7303

          k = 0.2081 0.3605 0.2048 (  9285 PWs)   bands (ev):

  -113.9923-113.9923 -68.1944 -68.1939 -68.1932 -68.1928 -68.1926 -68.1923
    -7.7051  -7.5350   3.5608   3.6901   4.1667   4.2758   4.3537   4.3674
     4.9913   5.0322   5.0953   5.1841   6.0286   6.4090   7.4961   7.9085
     8.5141   8.5167

          k = 0.2081 0.3605-0.3072 (  9292 PWs)   bands (ev):

  -113.9923-113.9923 -68.1942 -68.1942 -68.1929 -68.1929 -68.1924 -68.1924
    -7.6188  -7.6188   3.5675   3.5675   4.2607   4.2607   4.2892   4.2892
     5.0616   5.0616   5.0897   5.0897   6.2331   6.2331   8.1170   8.1170
     8.2184   8.2184

          k = 0.2601 0.4506 0.0000 (  9302 PWs)   bands (ev):

  -113.9923-113.9923 -68.1941 -68.1939 -68.1936 -68.1931 -68.1928 -68.1922
    -7.6722  -7.4464   3.6904   3.9467   4.1060   4.4785   4.5157   4.5928
     4.9535   5.0620   5.1464   5.2737   5.6748   6.0606   6.7512   7.3504
     8.2651   8.6772

          k = 0.2601 0.4506 0.1024 (  9303 PWs)   bands (ev):

  -113.9923-113.9923 -68.1943 -68.1938 -68.1936 -68.1930 -68.1928 -68.1922
    -7.6553  -7.4596   3.6529   3.8524   4.1316   4.4514   4.4761   4.5518
     5.0027   5.0649   5.1340   5.2622   5.6490   6.0461   7.0022   7.4515
     8.3474   8.5949

          k = 0.2601 0.4506 0.2048 (  9297 PWs)   bands (ev):

  -113.9923-113.9923 -68.1944 -68.1942 -68.1933 -68.1929 -68.1927 -68.1924
    -7.6103  -7.4971   3.5814   3.6726   4.2055   4.4083   4.4286   4.4463
     5.0736   5.0877   5.1097   5.2229   5.6872   5.9339   7.5847   7.7135
     8.3675   8.3969

          k = 0.2601 0.4506-0.3072 (  9310 PWs)   bands (ev):

  -113.9923-113.9923 -68.1944 -68.1944 -68.1930 -68.1930 -68.1925 -68.1925
    -7.5518  -7.5518   3.5676   3.5676   4.3180   4.3180   4.4013   4.4013
     5.0884   5.0884   5.1634   5.1634   5.7964   5.7964   8.0485   8.0485
     8.1374   8.1374

          k = 0.1561 0.0901 0.0000 (  9301 PWs)   bands (ev):

  -113.9924-113.9923 -68.1949 -68.1926 -68.1926 -68.1924 -68.1922 -68.1919
    -8.1698  -7.5687   3.7763   3.9180   3.9826   4.0448   4.1571   4.2867
     4.8703   4.9088   5.1144   5.2373   5.3633   7.9648   8.1884   8.5492
     9.2156   9.2596

          k = 0.1561 0.0901 0.1024 (  9303 PWs)   bands (ev):

  -113.9924-113.9923 -68.1947 -68.1928 -68.1926 -68.1924 -68.1922 -68.1920
    -8.1308  -7.6102   3.7503   3.8979   3.9741   3.9912   4.1371   4.1662
     4.8959   4.9274   5.1043   5.1537   5.7809   8.0353   8.1053   8.5045
     9.1424   9.2013

          k = 0.1561 0.0901 0.2048 (  9304 PWs)   bands (ev):

  -113.9924-113.9923 -68.1943 -68.1932 -68.1925 -68.1923 -68.1922 -68.1920
    -8.0233  -7.7227   3.6883   3.7469   3.9745   3.9783   4.0744   4.0886
     4.9590   4.9718   5.0739   5.0986   6.4756   7.7323   8.2398   8.6034
     8.9019   9.0417

          k = 0.1561 0.0901-0.3072 (  9304 PWs)   bands (ev):

  -113.9924-113.9924 -68.1938 -68.1938 -68.1924 -68.1924 -68.1922 -68.1922
    -7.8743  -7.8743   3.6616   3.6616   3.9946   3.9946   4.0437   4.0437
     5.0257   5.0257   5.0336   5.0336   7.1649   7.1649   8.5481   8.5481
     8.8268   8.8268

          k = 0.2081 0.1802 0.0000 (  9292 PWs)   bands (ev):

  -113.9924-113.9923 -68.1947 -68.1930 -68.1928 -68.1927 -68.1925 -68.1920
    -8.0269  -7.5146   3.7107   3.9401   4.0228   4.1088   4.2867   4.4712
     4.8291   4.9221   5.1223   5.3361   5.4192   7.2360   7.6528   8.1092
     9.0087   9.0341

          k = 0.2081 0.1802 0.1024 (  9296 PWs)   bands (ev):

  -113.9924-113.9923 -68.1946 -68.1930 -68.1930 -68.1926 -68.1924 -68.1921
    -7.9929  -7.5491   3.6831   3.8908   4.0180   4.0854   4.2628   4.3132
     4.8664   4.9425   5.1106   5.2064   5.8694   7.3115   7.6144   8.1235
     8.9526   8.9784

          k = 0.2081 0.1802 0.2048 (  9311 PWs)   bands (ev):

  -113.9924-113.9923 -68.1943 -68.1934 -68.1928 -68.1926 -68.1924 -68.1922
    -7.8997  -7.6433   3.6270   3.7275   4.0353   4.0670   4.1778   4.2076
     4.9496   4.9826   5.0781   5.1305   6.4761   7.2744   7.7494   8.2638
     8.7175   8.7862

          k = 0.2081 0.1802-0.3072 (  9306 PWs)   bands (ev):

  -113.9923-113.9923 -68.1939 -68.1939 -68.1926 -68.1926 -68.1923 -68.1923
    -7.7718  -7.7718   3.6200   3.6200   4.0626   4.0626   4.1541   4.1541
     5.0293   5.0293   5.0474   5.0474   6.9511   6.9511   8.2319   8.2319
     8.5308   8.5308

          k = 0.2601 0.2703 0.0000 (  9304 PWs)   bands (ev):

  -113.9924-113.9923 -68.1944 -68.1935 -68.1932 -68.1929 -68.1927 -68.1922
    -7.8566  -7.4655   3.6813   3.9586   4.0590   4.2446   4.4407   4.6000
     4.8286   4.9664   5.1337   5.3365   5.6347   6.5072   7.2012   7.5973
     8.6999   8.7900

          k = 0.2601 0.2703 0.1024 (  9281 PWs)   bands (ev):

  -113.9924-113.9923 -68.1944 -68.1934 -68.1933 -68.1928 -68.1926 -68.1922
    -7.8296  -7.4907   3.6519   3.8917   4.0704   4.2231   4.4086   4.4439
     4.8652   4.9899   5.1220   5.2611   5.9139   6.6359   7.1906   7.6665
     8.6837   8.7392

          k = 0.2601 0.2703 0.2048 (  9294 PWs)   bands (ev):

  -113.9923-113.9923 -68.1943 -68.1938 -68.1931 -68.1928 -68.1925 -68.1923
    -7.7564  -7.5605   3.5973   3.7210   4.1138   4.1952   4.2879   4.3349
     4.9596   5.0202   5.0940   5.1742   6.2424   6.6910   7.5026   7.8863
     8.4707   8.6078

          k = 0.2601 0.2703-0.3072 (  9288 PWs)   bands (ev):

  -113.9923-113.9923 -68.1941 -68.1941 -68.1929 -68.1929 -68.1924 -68.1924
    -7.6576  -7.6576   3.6011   3.6011   4.1705   4.1705   4.2619   4.2619
     5.0441   5.0441   5.0838   5.0838   6.4951   6.4951   8.0609   8.0609
     8.2632   8.2632

          k = 0.3122 0.3605 0.0000 (  9290 PWs)   bands (ev):

  -113.9923-113.9923 -68.1942 -68.1938 -68.1935 -68.1931 -68.1928 -68.1923
    -7.7057  -7.4450   3.7093   3.9939   4.0892   4.3912   4.5431   4.5963
     4.9203   5.0102   5.1490   5.3624   5.6352   6.1743   6.8353   7.2532
     8.3444   8.6005

          k = 0.3122 0.3605 0.1024 (  9286 PWs)   bands (ev):

  -113.9923-113.9923 -68.1943 -68.1937 -68.1935 -68.1930 -68.1928 -68.1923
    -7.6867  -7.4607   3.6760   3.9052   4.1087   4.3661   4.4916   4.5338
     4.9392   5.0369   5.1401   5.3180   5.6857   6.2416   6.9848   7.3672
     8.3958   8.5310

          k = 0.3122 0.3605 0.2048 (  9292 PWs)   bands (ev):

  -113.9923-113.9923 -68.1944 -68.1940 -68.1932 -68.1929 -68.1927 -68.1924
    -7.6356  -7.5049   3.6121   3.7226   4.1710   4.3306   4.4037   4.4276
     5.0086   5.0613   5.1288   5.2360   5.8211   6.1611   7.4516   7.7025
     8.2373   8.4706

          k = 0.3122 0.3605-0.3072 (  9298 PWs)   bands (ev):

  -113.9923-113.9923 -68.1943 -68.1943 -68.1930 -68.1930 -68.1925 -68.1925
    -7.5686  -7.5686   3.6075   3.6075   4.2679   4.2679   4.3669   4.3669
     5.0599   5.0599   5.1589   5.1589   5.9919   5.9919   7.8724   7.8724
     8.2023   8.2023

          k = 0.3642 0.4506 0.0000 (  9294 PWs)   bands (ev):

  -113.9923-113.9923 -68.1941 -68.1939 -68.1936 -68.1932 -68.1929 -68.1923
    -7.6379  -7.4481   3.7350   4.0282   4.0983   4.4729   4.5110   4.6365
     4.9509   5.0428   5.1651   5.2216   5.7414   6.0480   6.6922   7.2015
     8.1499   8.5286

          k = 0.3642 0.4506 0.1024 (  9294 PWs)   bands (ev):

  -113.9923-113.9923 -68.1943 -68.1939 -68.1936 -68.1931 -68.1929 -68.1923
    -7.6233  -7.4587   3.7003   3.9180   4.1179   4.4522   4.4887   4.5809
     5.0047   5.0488   5.1647   5.2275   5.6976   5.9831   6.9380   7.3436
     8.2305   8.4536

          k = 0.3642 0.4506 0.2048 (  9306 PWs)   bands (ev):

  -113.9923-113.9923 -68.1944 -68.1942 -68.1933 -68.1930 -68.1927 -68.1924
    -7.5846  -7.4894   3.6301   3.7231   4.1844   4.4101   4.4511   4.4688
     5.0595   5.0603   5.1905   5.2358   5.6770   5.8526   7.3769   7.7546
     8.1321   8.3980

          k = 0.3642 0.4506-0.3072 (  9302 PWs)   bands (ev):

  -113.9923-113.9923 -68.1944 -68.1944 -68.1930 -68.1930 -68.1926 -68.1926
    -7.5350  -7.5350   3.6151   3.6151   4.2958   4.2958   4.4346   4.4346
     5.0669   5.0669   5.2270   5.2270   5.7361   5.7361   7.7846   7.7846
     8.2059   8.2059

          k = 0.3122 0.1802 0.0000 (  9304 PWs)   bands (ev):

  -113.9924-113.9923 -68.1944 -68.1933 -68.1932 -68.1929 -68.1927 -68.1922
    -7.8796  -7.4705   3.7538   3.8927   4.1027   4.1759   4.4289   4.5938
     4.8095   4.9479   5.1321   5.3404   5.6193   6.8642   7.0113   7.6236
     8.7111   8.7663

          k = 0.3122 0.1802 0.1024 (  9288 PWs)   bands (ev):

  -113.9924-113.9923 -68.1944 -68.1933 -68.1932 -68.1929 -68.1926 -68.1923
    -7.8516  -7.4970   3.7173   3.8604   4.0945   4.1515   4.3988   4.4134
     4.8532   4.9825   5.1210   5.2618   5.9359   6.9882   7.0311   7.6329
     8.6268   8.7724

          k = 0.3122 0.1802 0.2048 (  9291 PWs)   bands (ev):

  -113.9923-113.9923 -68.1943 -68.1937 -68.1930 -68.1928 -68.1925 -68.1924
    -7.7754  -7.5704   3.6471   3.7359   4.0938   4.1227   4.2647   4.3259
     4.9522   5.0175   5.0948   5.1749   6.3362   6.8542   7.5313   7.7780
     8.4020   8.6336

          k = 0.3122 0.1802-0.3072 (  9290 PWs)   bands (ev):

  -113.9923-113.9923 -68.1940 -68.1940 -68.1928 -68.1928 -68.1925 -68.1925
    -7.6722  -7.6722   3.6349   3.6349   4.1117   4.1117   4.2565   4.2565
     5.0395   5.0395   5.0859   5.0859   6.6263   6.6263   8.0101   8.0101
     8.2446   8.2446

          k = 0.3642 0.2703 0.0000 (  9294 PWs)   bands (ev):

  -113.9923-113.9923 -68.1942 -68.1936 -68.1934 -68.1931 -68.1929 -68.1924
    -7.7264  -7.4444   3.8087   3.9441   4.1505   4.2901   4.5594   4.6601
     4.8327   4.9620   5.1519   5.4071   5.6525   6.4227   6.8504   7.0085
     8.3778   8.4584

          k = 0.3642 0.2703 0.1024 (  9287 PWs)   bands (ev):

  -113.9923-113.9923 -68.1942 -68.1936 -68.1934 -68.1931 -68.1928 -68.1925
    -7.7061  -7.4616   3.7769   3.9010   4.1391   4.2636   4.4995   4.5196
     4.8669   5.0210   5.1455   5.3458   5.7937   6.4722   6.9986   7.0952
     8.2961   8.5038

          k = 0.3642 0.2703 0.2048 (  9292 PWs)   bands (ev):

  -113.9923-113.9923 -68.1943 -68.1939 -68.1931 -68.1930 -68.1927 -68.1925
    -7.6514  -7.5100   3.7022   3.7802   4.1418   4.2198   4.3644   4.4195
     4.9664   5.0524   5.1401   5.2538   6.0025   6.3858   7.2673   7.5837
     8.0562   8.5046

          k = 0.3642 0.2703-0.3072 (  9292 PWs)   bands (ev):

  -113.9923-113.9923 -68.1942 -68.1942 -68.1930 -68.1930 -68.1926 -68.1926
    -7.5791  -7.5791   3.6842   3.6842   4.1858   4.1858   4.3446   4.3446
     5.0428   5.0428   5.1700   5.1700   6.2035   6.2035   7.6148   7.6148
     8.2243   8.2243

          k = 0.4162 0.3605 0.0000 (  9287 PWs)   bands (ev):

  -113.9923-113.9923 -68.1940 -68.1937 -68.1935 -68.1932 -68.1931 -68.1925
    -7.6139  -7.4489   3.8062   4.0850   4.2255   4.3675   4.6004   4.6700
     4.9209   4.9728   5.1734   5.2654   5.7177   6.1530   6.4679   7.1113
     8.0283   8.2694

          k = 0.4162 0.3605 0.1024 (  9288 PWs)   bands (ev):

  -113.9923-113.9923 -68.1942 -68.1938 -68.1935 -68.1931 -68.1930 -68.1926
    -7.6009  -7.4578   3.7897   4.0364   4.1274   4.3742   4.5530   4.5990
     4.9404   5.0156   5.1811   5.2971   5.6889   6.1159   6.6105   7.3232
     8.0281   8.2727

          k = 0.4162 0.3605 0.2048 (  9289 PWs)   bands (ev):

  -113.9923-113.9923 -68.1943 -68.1941 -68.1933 -68.1930 -68.1928 -68.1926
    -7.5666  -7.4838   3.7383   3.8463   4.1271   4.3309   4.4840   4.4905
     4.9925   5.0343   5.2210   5.3191   5.7186   5.9852   6.9568   7.7142
     7.8713   8.3685

          k = 0.4162 0.3605-0.3072 (  9290 PWs)   bands (ev):

  -113.9923-113.9923 -68.1943 -68.1943 -68.1931 -68.1931 -68.1927 -68.1927
    -7.5231  -7.5231   3.7295   3.7295   4.2197   4.2197   4.4580   4.4580
     5.0240   5.0240   5.2804   5.2804   5.8370   5.8370   7.3701   7.3701
     8.2440   8.2440

          k = 0.4683 0.2703 0.0000 (  9278 PWs)   bands (ev):

  -113.9923-113.9923 -68.1939 -68.1936 -68.1935 -68.1933 -68.1931 -68.1927
    -7.6056  -7.4490   3.8498   4.0872   4.2981   4.3249   4.6469   4.8096
     4.8225   4.9186   5.1691   5.3127   5.6811   6.1242   6.4232   7.0640
     8.0422   8.0912

          k = 0.4683 0.2703 0.1024 (  9301 PWs)   bands (ev):

  -113.9923-113.9923 -68.1941 -68.1938 -68.1933 -68.1933 -68.1929 -68.1927
    -7.5931  -7.4574   3.8603   4.0050   4.2298   4.3094   4.5905   4.6269
     4.8754   5.0068   5.1772   5.3638   5.6918   6.1694   6.4468   7.2886
     7.9358   8.2029

          k = 0.4683 0.2703 0.2048 (  9274 PWs)   bands (ev):

  -113.9923-113.9923 -68.1942 -68.1941 -68.1933 -68.1931 -68.1928 -68.1927
    -7.5603  -7.4818   3.8504   3.8639   4.1198   4.2585   4.4935   4.5051
     4.9554   5.0241   5.2223   5.3649   5.7882   6.0865   6.7250   7.5193
     7.8904   8.3524

          k = 0.4683 0.2703-0.3072 (  9260 PWs)   bands (ev):

  -113.9923-113.9923 -68.1942 -68.1942 -68.1931 -68.1931 -68.1927 -68.1927
    -7.5189  -7.5189   3.8062   3.8062   4.1629   4.1629   4.4658   4.4658
     5.0038   5.0038   5.2976   5.2976   5.9370   5.9370   7.1439   7.1439
     8.2550   8.2550

          k = 0.5203 0.3605 0.0000 (  9314 PWs)   bands (ev):

  -113.9923-113.9923 -68.1938 -68.1936 -68.1935 -68.1933 -68.1933 -68.1928
    -7.5384  -7.4728   3.8430   4.1690   4.2870   4.5432   4.7094   4.7517
     4.8852   4.9627   5.1197   5.1395   5.8501   5.9360   6.0667   7.4024
     7.7504   7.9286

          k = 0.5203 0.3605 0.1024 (  9302 PWs)   bands (ev):

  -113.9923-113.9923 -68.1940 -68.1938 -68.1935 -68.1931 -68.1931 -68.1928
    -7.5317  -7.4749   3.8634   4.1090   4.1813   4.4599   4.6456   4.6755
     4.9072   4.9756   5.1892   5.2300   5.8096   6.0086   6.1052   7.6006
     7.7146   7.9881

          k = 0.5203 0.3605 0.2048 (  9276 PWs)   bands (ev):

  -113.9923-113.9923 -68.1942 -68.1941 -68.1934 -68.1930 -68.1929 -68.1928
    -7.5152  -7.4823   3.8854   3.9806   4.0372   4.2991   4.5831   4.5929
     4.9297   4.9698   5.3075   5.3569   5.7651   5.8948   6.4882   7.3999
     8.0012   8.2240

          k = 0.5203 0.3605-0.3072 (  9258 PWs)   bands (ev):

  -113.9923-113.9923 -68.1942 -68.1942 -68.1932 -68.1932 -68.1927 -68.1927
    -7.4964  -7.4964   3.8735   3.8735   4.1319   4.1319   4.5672   4.5672
     4.9514   4.9514   5.3821   5.3821   5.7959   5.7959   6.9528   6.9528
     8.2697   8.2697

     highest occupied level (ev):     9.4457

!    total energy              =    -864.69597536 Ry
     estimated scf accuracy    <          3.9E-11 Ry

     The total energy is the sum of the following terms:
     one-electron contribution =    -582.50082987 Ry
     hartree contribution      =     306.69904931 Ry
     xc contribution           =     -87.13555725 Ry
     ewald contribution        =    -501.75863754 Ry

     convergence has been achieved in  16 iterations

     Forces acting on atoms (cartesian axes, Ry/au):

     atom    1 type  1   force =     0.00000000    0.00000000   -0.00000078
     atom    2 type  1   force =     0.00000000    0.00000000   -0.00000078
     atom    3 type  2   force =     0.00000000    0.00000000    0.00000078
     atom    4 type  2   force =    -0.00000000   -0.00000000    0.00000078

     Total force =     0.000002     Total SCF correction =     0.000003
     SCF correction compared to forces is large: reduce conv_thr to get better values


     Computing stress (Cartesian axis) and pressure

          total   stress  (Ry/bohr**3)                   (kbar)     P=        0.02
   0.00000017   0.00000000   0.00000000            0.03        0.00        0.00
   0.00000000   0.00000017   0.00000000            0.00        0.03        0.00
   0.00000000   0.00000000   0.00000005            0.00        0.00        0.01


     Writing all to output data dir ./ZnO.save/ :
     XML data file, charge density, pseudopotentials, collected wavefunctions

     init_run     :      4.54s CPU      4.71s WALL (       2 calls)
     electrons    :    374.34s CPU    389.34s WALL (       2 calls)
     forces       :      2.45s CPU      2.49s WALL (       2 calls)
     stress       :      6.73s CPU      6.85s WALL (       2 calls)

     Called by init_run:
     wfcinit      :      4.12s CPU      4.28s WALL (       2 calls)
     potinit      :      0.06s CPU      0.06s WALL (       2 calls)
     hinit0       :      0.19s CPU      0.19s WALL (       2 calls)

     Called by electrons:
     c_bands      :    355.25s CPU    369.12s WALL (      36 calls)
     sum_band     :     18.41s CPU     19.49s WALL (      36 calls)
     v_of_rho     :      0.46s CPU      0.49s WALL (      38 calls)
     mix_rho      :      0.20s CPU      0.21s WALL (      36 calls)

     Called by c_bands:
     init_us_2    :      4.92s CPU      5.08s WALL (    4992 calls)
     ccgdiagg     :    304.15s CPU    315.92s WALL (    2379 calls)
     wfcrot       :     51.18s CPU     53.29s WALL (    2379 calls)

     Called by *cgdiagg:
     h_psi        :    240.80s CPU    251.03s WALL (  229189 calls)

     Called by h_psi:
     h_psi:calbec :     57.27s CPU     59.76s WALL (  229189 calls)
     vloc_psi     :    143.50s CPU    149.74s WALL (  229189 calls)
                                        0.00s GPU  (  229189 calls)
     add_vuspsi   :     37.58s CPU     39.08s WALL (  229189 calls)
     hs_1psi      :    201.04s CPU    209.27s WALL (  226810 calls)
     s_1psi       :     33.86s CPU     34.99s WALL (  226810 calls)

     General routines
     calbec       :     96.83s CPU    100.66s WALL (  458175 calls)
     fft          :      0.30s CPU      0.31s WALL (     394 calls)
     ffts         :      0.01s CPU      0.01s WALL (      36 calls)
     fftw         :    130.71s CPU    136.83s WALL (  637232 calls)

     Parallel routines

     PWSCF        :   6m28.43s CPU   6m43.89s WALL


   This run was terminated on:  11:30:54  21May2026            

=------------------------------------------------------------------------------=
   JOB DONE.
=------------------------------------------------------------------------------=
