Generated by cif2cell 2.0.0. None :  Capitani, G. C. et al., American Mineralogist 92, 403-407 (2007). Species order: Si C 
   3.081000
  0.866025403784439  -0.500000000000000   0.000000000000000
  0.000000000000000   1.000000000000000   0.000000000000000
  0.000000000000000   0.000000000000000   4.909055501460565
   6   6
Direct
  0.000000000000000   0.000000000000000   0.000000000000000 
  0.000000000000000   0.000000000000000   0.500000000000000 
  0.333333333333333   0.666666666666667   0.166400000000000 
  0.666666666666667   0.333333333333333   0.666400000000000 
  0.666666666666667   0.333333333333333   0.332900000000000 
  0.333333333333333   0.666666666666667   0.832900000000000 
  0.333333333333333   0.666666666666667   0.041200000000000 
  0.666666666666667   0.333333333333333   0.541200000000000 
  0.666666666666667   0.333333333333333   0.208000000000000 
  0.333333333333333   0.666666666666667   0.708000000000000 
  0.000000000000000   0.000000000000000   0.374600000000000 
  0.000000000000000   0.000000000000000   0.874600000000000 
