&CONTROL
  calculation  = "vc-relax",
  prefix       = "ZNO",
  pseudo_dir   = "/home/john/Data/PseudoPotentials/",
  outdir       = ".",
  nstep        = 50,
  etot_conv_thr= 2.0D-7,
  forc_conv_thr= 2.0D-6,
/
&SYSTEM
  ibrav=0, celldm(1) =6.330582528, nat=4, ntyp= 2,
  occupations='fixed', 
  ecutwfc =140.0, !better 140 was 80
/
&ELECTRONS
  mixing_mode='plain'
  mixing_beta = 0.5,
  startingwfc='random',
  conv_thr =  1.0d-8
/
&IONS
  ion_dynamics = 'bfgs',
  pot_extrapolation = 'none',
  wfc_extrapolation = 'none',
/
&CELL
  cell_dynamics = 'bfgs',
/
CELL_PARAMETERS alat
  1.55820896     0.00000000     0.00000000
  0.00000000     0.86602540     -0.50000000
  0.00000000     0.00000000     1.00000000
ATOMIC_SPECIES
  Zn 65.409  Zn.pbe-d-hgh.UPF
  O  15.999  O.pbe-hgh.UPF
ATOMIC_POSITIONS (alat)
Zn       2.010975287   0.487933254  -0.051360548
Zn       1.234717421   0.199473387   0.448322227
O        1.051679030   0.488287222  -0.051814333
O        1.830251369   0.199830262   0.448810714
K_POINTS (automatic)
2 2 2 0 0 0
