Loading intel/oneapi/compiler/2025.0.4
  Loading requirement: intel/oneapi/tbb/2022.0 intel/oneapi/compiler-rt/2025.0.4
    intel/oneapi/umf/0.9.1
Start at Thu 13 Nov 17:11:18 GMT 2025
Running the following command
------------------------------------------------------------
          Invoking FHI-aims ...

          When using FHI-aims, please cite the following reference:

            Volker Blum, Ralf Gehrke, Felix Hanke, Paula Havu,
            Ville Havu, Xinguo Ren, Karsten Reuter, and Matthias Scheffler,
            'Ab Initio Molecular Simulations with Numeric Atom-Centered Orbitals',
            Computer Physics Communications 180, 2175-2196 (2009)

          In addition, many other developments in FHI-aims are likely important for
          your particular application. If so, please cite them. A partial list of references
          is written at the end of this file. Thank you for giving credit to the authors
          of these developments.

          For general information about FHI-aims please find us at

            https://fhi-aims.org

          Online tutorials can be found at

            https://fhi-aims-club.gitlab.io/tutorials/tutorials-overview/

          For any questions about FHI-aims, please visit our slack channel at

            https://fhi-aims.slack.com

          and our main development and support site at

            https://aims-git.rz-berlin.mpg.de .

          The latter site, in particular, has a wiki to collect information, as well
          as an issue tracker to log discussions, suggest improvements, and report issues
          or bugs. https://aims-git.rz-berlin.mpg.de is also the main development site
          of the project and all new and updated code versions can be obtained there.
          Please send an email to aims-coordinators@fhi-berlin.mpg.de and we will add
          you to these sites. They are for you and everyone is welcome there.

------------------------------------------------------------



  Date     :  20251113, Time     :  171120.600
  Time zero on CPU 1             :   0.696033000000000E+00  s.
  Internal wall clock time zero  :           532285880.600  s.

  FHI-aims created a unique identifier for this run for later identification
  aims_uuid : 99761868-9866-49E5-ADB2-F9EC556CE121

  Build configuration of the current instance of FHI-aims
  -------------------------------------------------------
  FHI-aims version      : 250822
  Commit number         : GITDIR-NOTFOUND
  CMake host system     : Linux-5.14.0-427.33.1.el9_4.x86_64
  CMake version         : 3.26.5
  OS Distribution       : Rocky Linux 9.4 (Blue Onyx)
  Built on              : AMD EPYC 9354P 32-Core Processor
  Fortran compiler      : /opt/apps/pkg/compilers/intel/oneapi/2025.0.1.47/mpi/2021.14/bin/mpiifx (IntelLLVM) version 2025.0.4
  Fortran compiler flags: -O3 -fp-model precise
  C compiler            : /opt/apps/pkg/compilers/intel/oneapi/2025.0.1.47/compiler/2025.0/bin/icx (IntelLLVM) version 2025.0.4
  C compiler flags      : -O3 -fp-model precise -std=gnu99
  C++ compiler          : /opt/apps/pkg/compilers/intel/oneapi/2025.0.1.47/compiler/2025.0/bin/icpx (IntelLLVM) version 2025.0.4
  C++ compiler flags    : -O3 -fp-model precise
  HIP compiler          :
  HIP compiler flags    :
  HIP GPU arch          :
  Using MPI
  Using ScaLAPACK
  Using LibXC
  Using i-PI
  Using RLSY
  Linking against: /opt/apps/pkg/compilers/intel/oneapi/2025.0.1.47/mkl/2025.0/lib/libmkl_intel_lp64.so
                   /opt/apps/pkg/compilers/intel/oneapi/2025.0.1.47/mkl/2025.0/lib/libmkl_sequential.so
                   /opt/apps/pkg/compilers/intel/oneapi/2025.0.1.47/mkl/2025.0/lib/libmkl_core.so
                   /opt/apps/pkg/compilers/intel/oneapi/2025.0.1.47/mkl/2025.0/lib/libmkl_blacs_intelmpi_lp64.so
                   /opt/apps/pkg/compilers/intel/oneapi/2025.0.1.47/mkl/2025.0/lib/libmkl_scalapack_lp64.so

  Using       24 parallel tasks.
  Task        0 on host node043.aire.lee.alces.network reporting.
  Task        1 on host node043.aire.lee.alces.network reporting.
  Task        2 on host node043.aire.lee.alces.network reporting.
  Task        3 on host node043.aire.lee.alces.network reporting.
  Task        4 on host node043.aire.lee.alces.network reporting.
  Task        5 on host node043.aire.lee.alces.network reporting.
  Task        6 on host node043.aire.lee.alces.network reporting.
  Task        7 on host node043.aire.lee.alces.network reporting.
  Task        8 on host node043.aire.lee.alces.network reporting.
  Task        9 on host node043.aire.lee.alces.network reporting.
  Task       10 on host node043.aire.lee.alces.network reporting.
  Task       11 on host node043.aire.lee.alces.network reporting.
  Task       12 on host node043.aire.lee.alces.network reporting.
  Task       13 on host node043.aire.lee.alces.network reporting.
  Task       14 on host node043.aire.lee.alces.network reporting.
  Task       15 on host node043.aire.lee.alces.network reporting.
  Task       16 on host node043.aire.lee.alces.network reporting.
  Task       17 on host node043.aire.lee.alces.network reporting.
  Task       18 on host node043.aire.lee.alces.network reporting.
  Task       19 on host node043.aire.lee.alces.network reporting.
  Task       20 on host node043.aire.lee.alces.network reporting.
  Task       21 on host node043.aire.lee.alces.network reporting.
  Task       22 on host node043.aire.lee.alces.network reporting.
  Task       23 on host node043.aire.lee.alces.network reporting.

  Obtaining array dimensions for all initial allocations:
  
  -----------------------------------------------------------------------
  Parsing control.in (first pass over file, find array dimensions only).
  The contents of control.in will be repeated verbatim below
  unless switched off by setting 'verbatim_writeout .false.' .
  in the first line of control.in .
  -----------------------------------------------------------------------
  
  
  # Mon Nov 10 18:44:22 2025
  
  #===============================================================================
  xc                                 pbe
  d3
  relativistic                       atomic_zora scalar
  k_grid                             7 6 5
  sc_accuracy_rho                    1E-6
  charge_mix_param                   0.4
  DFPT                               dielectric
  #===============================================================================
  
  ################################################################################
  #
  #  FHI-aims code project
  #  Volker Blum, Fritz Haber Institute Berlin, 2009
  #
  #  Suggested "tight" defaults for Na atom (to be pasted into control.in file)
  #
  #  2016/03/28 Added full tier 2 to default "tight" settings. This is done to
  #             remain consistent with Li and Mg. It is quite possible that a
  #             simple tier 1 will do very well for Na at much reduced cost
  #             especially for hybrid functionals.
  #
  ################################################################################
    species        Na
  #     global species definitions
      nucleus             11
      mass                22.98976928
  #
      l_hartree           6
  #
      cut_pot             5.0          2.0  1.0
      basis_dep_cutoff    1e-4
  #
      radial_base         40 7.0
      radial_multiplier   2
      angular_grids       specified
        division   0.5925  110
        division   0.7843  194
        division   1.0201  302
        division   1.1879  434
  #      division   1.3799  590
  #      division   1.4503  770
  #      division   7.0005  974
  #      outer_grid  974
        outer_grid  434
  ################################################################################
  #
  #  Definition of "minimal" basis
  #
  ################################################################################
  #     valence basis states
      valence      3  s   1.
      valence      2  p   6.
  #     ion occupancy
      ion_occ      2  s   2.
      ion_occ      2  p   6.
  ################################################################################
  #
  #  Suggested additional basis functions. For production calculations,
  #  uncomment them one after another (the most important basis functions are
  #  listed first).
  #
  #  Constructed for dimers: 2.0 A, 2.5 A, 3.0 A, 3.75 A, 4.5 A
  #
  ################################################################################
  #  "First tier" - improvements: -60.09 meV to -10.02 meV
       hydro 2 p 1.2
       hydro 3 s 1.8
       hydro 3 d 3.8
  #  "Second tier" - improvements: -2.94 meV to -1.27 meV
       hydro 4 p 3.1
       hydro 3 s 10
       hydro 4 f 6.2
       hydro 4 d 1.3
  #  "Third tier" - improvements: -0.83 meV to -0.07 meV
  #     hydro 3 d 7.8
  #     hydro 3 p 2.3
  #     hydro 5 g 9.6
  #     hydro 4 p 0.85
  #     hydro 5 f 1.8
  #     hydro 2 s 0.6
  #  Further basis functions that fell out of the optimization - noise level...
  #     hydro 5 g 0.1
  #     hydro 4 d 3.4
  #     hydro 4 s 0.1
  
  ################################################################################
  #
  # For methods that use the localized form of the "resolution of identity" for
  # the two-electron Coulomb operator (RI_method LVL), particularly Hartree-Fock and
  # hybrid density functional calculations, the highest accuracy can be obtained by
  # uncommenting the line beginning with "for_aux"  below, thus adding an extra g radial
  # function to the construction of the product basis set for the expansion.
  # See Ref. New J. Phys. 17, 093020 (2015) for more information, particularly Figs. 1 and 6.
  #
  ################################################################################
  #
  # for_aux hydro 5 g 6.0
  ################################################################################
  #
  #  FHI-aims code project
  #  Volker Blum, Fritz Haber Institute Berlin, 2009
  #
  #  Suggested "tight" defaults for S atom (to be pasted into control.in file)
  #
  #  Revised Jan 04, 2011, following tests (SiC) done by Lydia Nemec:
  #     d and g functions of tier 2 now enabled by default.
  #
  ################################################################################
    species        S
  #     global species definitions
      nucleus             16
      mass                32.065
  #
      l_hartree           6
  #
      cut_pot             4.0          2.0  1.0
      basis_dep_cutoff    1e-4
  #
      radial_base         44 7.0
      radial_multiplier   2
      angular_grids       specified
        division   0.4665  110
        division   0.5810  194
        division   0.7139  302
        division   0.8274  434
  #      division   0.9105  590
  #      division   1.0975  770
  #      division   1.2028  974
  #      outer_grid  974
        outer_grid  434
  ################################################################################
  #
  #  Definition of "minimal" basis
  #
  ################################################################################
  #     valence basis states
      valence      3  s   2.
      valence      3  p   4.
  #     ion occupancy
      ion_occ      3  s   1.
      ion_occ      3  p   3.
  ################################################################################
  #
  #  Suggested additional basis functions. For production calculations,
  #  uncomment them one after another (the most important basis functions are
  #  listed first).
  #
  #  Constructed for dimers: 1.6 A, 1.9 A, 2.5 A, 3.25 A, 4.0 A
  #
  ################################################################################
  #  "First tier" - improvements: -652.81 meV to -45.53 meV
       ionic 3 d auto
       hydro 2 p 1.8
       hydro 4 f 7
       ionic 3 s auto
  #  "Second tier" - improvements: -30.20 meV to -1.74 meV
       hydro 4 d 6.2
       hydro 5 g 10.8
  #     hydro 4 p 4.9
  #     hydro 5 f 10
  #     hydro 1 s 0.8
  #  "Third tier" - improvements: -1.04 meV to -0.20 meV
  #     hydro 3 d 3.9
  #     hydro 3 d 2.7
  #     hydro 5 g 12
  #     hydro 4 p 10.4
  #     hydro 5 f 12.4
  #     hydro 2 s 1.9
  #  "Fourth tier" - improvements: -0.35 meV to -0.06 meV
  #     hydro 4 d 10.4
  #     hydro 4 p 7.2
  #     hydro 4 d 10
  #     hydro 5 g 19.2
  #     hydro 4 s 12
  
  ################################################################################
  #
  # For methods that use the localized form of the "resolution of identity" for
  # the two-electron Coulomb operator (RI_method LVL), particularly Hartree-Fock and
  # hybrid density functional calculations, the highest accuracy can be obtained by
  # uncommenting the line beginning with "for_aux"  below, thus adding an extra g radial
  # function to the construction of the product basis set for the expansion.
  # See Ref. New J. Phys. 17, 093020 (2015) for more information, particularly Figs. 1 and 6.
  #
  ################################################################################
  #
  # for_aux hydro 5 g 6.0
  ################################################################################
  #
  #  FHI-aims code project
  #  Volker Blum, Fritz Haber Institute Berlin, 2009
  #
  #  Suggested "tight" defaults for O atom (to be pasted into control.in file)
  #
  ################################################################################
    species        O
  #     global species definitions
      nucleus             8
      mass                15.9994
  #
      l_hartree           6
  #
      cut_pot             4.0  2.0  1.0
      basis_dep_cutoff    1e-4
  #
      radial_base         36 7.0
      radial_multiplier   2
       angular_grids specified
        division   0.1817   50
        division   0.3417  110
        division   0.4949  194
        division   0.6251  302
        division   0.8014  434
  #      division   0.8507  590
  #      division   0.8762  770
  #      division   0.9023  974
  #      division   1.2339 1202
  #      outer_grid 974
        outer_grid  434
  ################################################################################
  #
  #  Definition of "minimal" basis
  #
  ################################################################################
  #     valence basis states
      valence      2  s   2.
      valence      2  p   4.
  #     ion occupancy
      ion_occ      2  s   1.
      ion_occ      2  p   3.
  ################################################################################
  #
  #  Suggested additional basis functions. For production calculations,
  #  uncomment them one after another (the most important basis functions are
  #  listed first).
  #
  #  Constructed for dimers: 1.0 A, 1.208 A, 1.5 A, 2.0 A, 3.0 A
  #
  ################################################################################
  #  "First tier" - improvements: -699.05 meV to -159.38 meV
       hydro 2 p 1.8
       hydro 3 d 7.6
       hydro 3 s 6.4
  #  "Second tier" - improvements: -49.91 meV to -5.39 meV
       hydro 4 f 11.6
       hydro 3 p 6.2
       hydro 3 d 5.6
       hydro 5 g 17.6
       hydro 1 s 0.75
  #  "Third tier" - improvements: -2.83 meV to -0.50 meV
  #     ionic 2 p auto
  #     hydro 4 f 10.8
  #     hydro 4 d 4.7
  #     hydro 2 s 6.8
  #  "Fourth tier" - improvements: -0.40 meV to -0.12 meV
  #     hydro 3 p 5
  #     hydro 3 s 3.3
  #     hydro 5 g 15.6
  #     hydro 4 f 17.6
  #     hydro 4 d 14
  # Further basis functions - -0.08 meV and below
  #     hydro 3 s 2.1
  #     hydro 4 d 11.6
  #     hydro 3 p 16
  #     hydro 2 s 17.2
  ################################################################################
  #
  # For methods that use the localized form of the "resolution of identity" for
  # the two-electron Coulomb operator (RI_method LVL), particularly Hartree-Fock and
  # hybrid density functional calculations, the highest accuracy can be obtained by
  # uncommenting the line beginning with "for_aux"  below, thus adding an extra g radial
  # function to the construction of the product basis set for the expansion.
  # See Ref. New J. Phys. 17, 093020 (2015) for more information, particularly Figs. 1 and 6.
  #
  ################################################################################
  #
  # for_aux hydro 5 g 6.0
  
  -----------------------------------------------------------------------
  Completed first pass over input file control.in .
  -----------------------------------------------------------------------
  
  
  -----------------------------------------------------------------------
  Parsing geometry.in (first pass over file, find array dimensions only).
  The contents of geometry.in will be repeated verbatim below
  unless switched off by setting 'verbatim_writeout .false.' .
  in the first line of geometry.in .
  -----------------------------------------------------------------------
  
  #===============================================================================
  # Created using the Atomic Simulation Environment (ASE)
  
  # Wed Nov 12 18:52:48 2025
  
  #=======================================================
  lattice_vector 4.8157443996570004 -0.0090538968590000 0.0285011081590000
  lattice_vector -0.7452444617100000 5.5966575755200001 0.0342225258230000
  lattice_vector -1.4095741562669999 -1.4279555876879999 5.7951034742780001
  atom -0.3751079771297017 1.4480249970949097 1.2154753389123394 Na
  atom 3.0360337588097024 2.7116230938780905 4.6423517693476608 Na
  atom 2.0103840353802123 3.9926357914725705 1.4748612415204660 S
  atom 0.6505417462997879 0.1670122995004294 4.3829658667395339 S
  atom 2.1784201128724807 -0.3977994562315996 2.4291891364706193 O
  atom 0.4825056688075199 4.5574475472045997 3.4286379717893807 O
  atom 2.8963421087996690 4.8445656398103729 0.6842537763196509 O
  atom -0.2354163271196685 -0.6849175488373734 5.1735733319403492 O
  atom 0.8549460023135307 3.4494312369695348 0.7631374220804169 O
  atom 1.8059797793664698 0.7102168540034657 5.0946896861795832 O
  atom 2.6729600086138041 3.0093064370889011 2.3306047241468018 O
  atom -0.0120342269338038 1.1503416538840989 3.5272223841131987 O
  
  -----------------------------------------------------------------------
  Completed first pass over input file geometry.in .
  -----------------------------------------------------------------------
  

  Basic array size parameters:
  | Number of species                 :        3
  | Number of atoms                   :       12
  | Number of lattice vectors         :        3
  | Max. basis fn. angular momentum   :        4
  | Max. atomic/ionic basis occupied n:        3
  | Max. number of basis fn. types    :        3
  | Max. radial fns per species/type  :        8
  | Max. logarithmic grid size        :     1357
  | Max. radial integration grid size :       89
  | Max. angular integration grid size:      434
  | Max. angular grid division number :        8
  | Radial grid for Hartree potential :     1357
  | Number of spin channels           :        1

  Definition of standardized fundamental physical constants in this FHI-aims run:
  | Using the set of values used in FHI-aims up to 2024, which combines values from
  | different CODATA sets - see constants.f90.
  | Use the 'codata' keyword in control.in to change this selection.

  Memory overcommitment is allowed on your operating system.

------------------------------------------------------------
          Reading file control.in.
------------------------------------------------------------
  XC: Using PBE gradient-corrected functionals.
  Using the D3 dispersion correction
  Scalar relativistic treatment of kinetic energy: on-site free-atom approximation to ZORA.
  Found k-point grid:         7         6         5
  Convergence accuracy of self-consistent charge density:  0.1000E-05
  Charge density mixing - mixing parameter:     0.4000
  DFPT calculation will begin after the DFT/HF calculation.
 
  Reading configuration options for species Na                  .
  | Found nuclear charge :  11.0000
  | Found atomic mass :    22.9897692800000      amu
  | Found l_max for Hartree potential  :   6
  | Found cutoff potl. onset [A], width [A], scale factor :    5.00000    2.00000    1.00000
  | Threshold for basis-dependent cutoff potential is   0.100000E-03
  | Found data for basic radial integration grid :    40 points, outermost radius =    7.000 A
  | Found multiplier for basic radial grid :   2
  | Found angular grid specification: user-specified.
  | Specified grid contains     5 separate shells.
  | Check grid settings after all constraints further below.
  | Found free-atom valence shell :  3 s   1.000
  | Found free-atom valence shell :  2 p   6.000
  | Found free-ion valence shell :  2 s   2.000
  | Found free-ion valence shell :  2 p   6.000
  | Found hydrogenic basis function :  2 p   1.200
  | Found hydrogenic basis function :  3 s   1.800
  | Found hydrogenic basis function :  3 d   3.800
  | Found hydrogenic basis function :  4 p   3.100
  | Found hydrogenic basis function :  3 s  10.000
  | Found hydrogenic basis function :  4 f   6.200
  | Found hydrogenic basis function :  4 d   1.300
 | Encountered keyword species, ending the description of species Na                  .
  Species Na                  : Missing cutoff potential type.
  Defaulting to exp(1/x)/(1-x)^2 type cutoff potential.
  Species Na: No 'logarithmic' tag. Using default grid for free atom:
  | Default logarithmic grid data [bohr] : 0.1000E-03 0.1000E+03 0.1012E+01
  Species Na: On-site basis accuracy parameter (for Gram-Schmidt orthonormalisation) not specified.
  Using default value basis_acc =  0.1000000E-03.
  Species Na                  : Using default innermost maximum threshold i_radial=  2 for radial functions.
  Species Na                  : Default cutoff onset for free atom density etc. : 0.50000000E+01 AA.
  Species Na                  : Basic radial grid will be enhanced according to radial_multiplier =   2, to contain    81 grid points.
 
  Reading configuration options for species S                   .
  | Found nuclear charge :  16.0000
  | Found atomic mass :    32.0650000000000      amu
  | Found l_max for Hartree potential  :   6
  | Found cutoff potl. onset [A], width [A], scale factor :    4.00000    2.00000    1.00000
  | Threshold for basis-dependent cutoff potential is   0.100000E-03
  | Found data for basic radial integration grid :    44 points, outermost radius =    7.000 A
  | Found multiplier for basic radial grid :   2
  | Found angular grid specification: user-specified.
  | Specified grid contains     5 separate shells.
  | Check grid settings after all constraints further below.
  | Found free-atom valence shell :  3 s   2.000
  | Found free-atom valence shell :  3 p   4.000
  | Found free-ion valence shell :  3 s   1.000
  | Found free-ion valence shell :  3 p   3.000
  | Found ionic basis function :  3 d , default cutoff radius.
  | Found hydrogenic basis function :  2 p   1.800
  | Found hydrogenic basis function :  4 f   7.000
  | Found ionic basis function :  3 s , default cutoff radius.
  | Found hydrogenic basis function :  4 d   6.200
  | Found hydrogenic basis function :  5 g  10.800
 | Encountered keyword species, ending the description of species S                   .
  Species S                   : Missing cutoff potential type.
  Defaulting to exp(1/x)/(1-x)^2 type cutoff potential.
  Species S : No 'logarithmic' tag. Using default grid for free atom:
  | Default logarithmic grid data [bohr] : 0.1000E-03 0.1000E+03 0.1012E+01
  | Will include ionic basis functions of  2.0-fold positive S                    ion.
  Species S : On-site basis accuracy parameter (for Gram-Schmidt orthonormalisation) not specified.
  Using default value basis_acc =  0.1000000E-03.
  Species S                   : Using default innermost maximum threshold i_radial=  2 for radial functions.
  Species S                   : Default cutoff onset for free atom density etc. : 0.40000000E+01 AA.
  Species S                   : Basic radial grid will be enhanced according to radial_multiplier =   2, to contain    89 grid points.
 
  Reading configuration options for species O                   .
  | Found nuclear charge :   8.0000
  | Found atomic mass :    15.9994000000000      amu
  | Found l_max for Hartree potential  :   6
  | Found cutoff potl. onset [A], width [A], scale factor :    4.00000    2.00000    1.00000
  | Threshold for basis-dependent cutoff potential is   0.100000E-03
  | Found data for basic radial integration grid :    36 points, outermost radius =    7.000 A
  | Found multiplier for basic radial grid :   2
  | Found angular grid specification: user-specified.
  | Specified grid contains     6 separate shells.
  | Check grid settings after all constraints further below.
  | Found free-atom valence shell :  2 s   2.000
  | Found free-atom valence shell :  2 p   4.000
  | Found free-ion valence shell :  2 s   1.000
  | Found free-ion valence shell :  2 p   3.000
  | Found hydrogenic basis function :  2 p   1.800
  | Found hydrogenic basis function :  3 d   7.600
  | Found hydrogenic basis function :  3 s   6.400
  | Found hydrogenic basis function :  4 f  11.600
  | Found hydrogenic basis function :  3 p   6.200
  | Found hydrogenic basis function :  3 d   5.600
  | Found hydrogenic basis function :  5 g  17.600
  | Found hydrogenic basis function :  1 s   0.750
  Species O                   : Missing cutoff potential type.
  Defaulting to exp(1/x)/(1-x)^2 type cutoff potential.
  Species O : No 'logarithmic' tag. Using default grid for free atom:
  | Default logarithmic grid data [bohr] : 0.1000E-03 0.1000E+03 0.1012E+01
  Species O : On-site basis accuracy parameter (for Gram-Schmidt orthonormalisation) not specified.
  Using default value basis_acc =  0.1000000E-03.
  Species O                   : Using default innermost maximum threshold i_radial=  2 for radial functions.
  Species O                   : Default cutoff onset for free atom density etc. : 0.40000000E+01 AA.
  Species O                   : Basic radial grid will be enhanced according to radial_multiplier =   2, to contain    73 grid points.
 
  Finished reading input file 'control.in'.
 
------------------------------------------------------------


------------------------------------------------------------
          Reading geometry description geometry.in.
------------------------------------------------------------
  | The smallest distance between any two atoms is         1.46142613 AA.
  | The first atom of this pair is atom number                      4 .
  | The second atom of this pair is atom number                     8 .
  | Wigner-Seitz cell of the first atom image           0     0     0 .
  | (The Wigner-Seitz cell of the second atom is 0 0 0  by definition.)

  Symmetry information by spglib:
  | Precision set to  0.1E-04
  | Number of Operations  : 2
  | Space group           : 2
  | International         : P-1
  | Schoenflies           : Ci^1
  Input structure read successfully.
  The structure contains       12 atoms,  and a total of        118.000 electrons.

  Input geometry:
  | Unit cell:
  |        4.81574440       -0.00905390        0.02850111
  |       -0.74524446        5.59665758        0.03422253
  |       -1.40957416       -1.42795559        5.79510347
  | Atomic structure:
  |       Atom                x [A]            y [A]            z [A]
  |    1: Species Na           -0.37510798        1.44802500        1.21547534
  |    2: Species Na            3.03603376        2.71162309        4.64235177
  |    3: Species S             2.01038404        3.99263579        1.47486124
  |    4: Species S             0.65054175        0.16701230        4.38296587
  |    5: Species O             2.17842011       -0.39779946        2.42918914
  |    6: Species O             0.48250567        4.55744755        3.42863797
  |    7: Species O             2.89634211        4.84456564        0.68425378
  |    8: Species O            -0.23541633       -0.68491755        5.17357333
  |    9: Species O             0.85494600        3.44943124        0.76313742
  |   10: Species O             1.80597978        0.71021685        5.09468969
  |   11: Species O             2.67296001        3.00930644        2.33060472
  |   12: Species O            -0.01203423        1.15034165        3.52722238

  Lattice parameters for 3D lattice (in Angstroms) :     4.815837    5.646161    6.132632
  Angle(s) between unit vectors (in degrees)       :   101.229440  102.933116   97.690188


  Quantities derived from the lattice vectors (in Angstrom^-1):
  | Reciprocal lattice vector 1:  1.302914  0.171299  0.359124
  | Reciprocal lattice vector 2:  0.000472  1.121041  0.276347
  | Reciprocal lattice vector 3: -0.006411 -0.007463  1.080825
  | Unit cell volume                               :   0.156642E+03  Angstrom^3

  Fractional coordinates:
                         L1                L2                L3
       atom_frac         0.03116532        0.31178628        0.20774728  Na
       atom_frac         0.96883468        0.68821372        0.79225272  Na
       atom_frac         0.61003266        0.77738111        0.24691029  S
       atom_frac         0.38996734        0.22261889        0.75308971  S
       atom_frac         0.57972692        0.03602936        0.41611565  O
       atom_frac         0.42027308        0.96397064        0.58388435  O
       atom_frac         0.77178747        0.89467574        0.10899528  O
       atom_frac         0.22821253        0.10532426        0.89100472  O
       atom_frac         0.31494609        0.64907313        0.12630459  O
       atom_frac         0.68505391        0.35092687        0.87369541  O
       atom_frac         0.76953052        0.63962347        0.39460602  O
       atom_frac         0.23046948        0.36037653        0.60539398  O

  Slab Identifier: This seems to be a bulk system.
 
  Finished reading input file 'geometry.in'.
 

 
  Consistency checks for stacksize environment parameter are next.
 
  | Maximum stacksize for task 0: unlimited
  | Maximum stacksize for task 1: unlimited
  | Maximum stacksize for task 2: unlimited
  | Maximum stacksize for task 3: unlimited
  | Maximum stacksize for task 4: unlimited
  | Maximum stacksize for task 5: unlimited
  | Maximum stacksize for task 6: unlimited
  | Maximum stacksize for task 7: unlimited
  | Maximum stacksize for task 8: unlimited
  | Maximum stacksize for task 9: unlimited
  | Maximum stacksize for task 10: unlimited
  | Maximum stacksize for task 11: unlimited
  | Maximum stacksize for task 12: unlimited
  | Maximum stacksize for task 13: unlimited
  | Maximum stacksize for task 14: unlimited
  | Maximum stacksize for task 15: unlimited
  | Maximum stacksize for task 16: unlimited
  | Maximum stacksize for task 17: unlimited
  | Maximum stacksize for task 18: unlimited
  | Maximum stacksize for task 19: unlimited
  | Maximum stacksize for task 20: unlimited
  | Maximum stacksize for task 21: unlimited
  | Maximum stacksize for task 22: unlimited
  | Maximum stacksize for task 23: unlimited
  | Current stacksize for task 0: unlimited
  | Current stacksize for task 1: unlimited
  | Current stacksize for task 2: unlimited
  | Current stacksize for task 3: unlimited
  | Current stacksize for task 4: unlimited
  | Current stacksize for task 5: unlimited
  | Current stacksize for task 6: unlimited
  | Current stacksize for task 7: unlimited
  | Current stacksize for task 8: unlimited
  | Current stacksize for task 9: unlimited
  | Current stacksize for task 10: unlimited
  | Current stacksize for task 11: unlimited
  | Current stacksize for task 12: unlimited
  | Current stacksize for task 13: unlimited
  | Current stacksize for task 14: unlimited
  | Current stacksize for task 15: unlimited
  | Current stacksize for task 16: unlimited
  | Current stacksize for task 17: unlimited
  | Current stacksize for task 18: unlimited
  | Current stacksize for task 19: unlimited
  | Current stacksize for task 20: unlimited
  | Current stacksize for task 21: unlimited
  | Current stacksize for task 22: unlimited
  | Current stacksize for task 23: unlimited
 
  Consistency checks for the contents of control.in are next.
 
  MPI_IN_PLACE appears to work with this MPI implementation.
  | Keeping use_mpi_in_place .true. (see manual).
  Target number of points in a grid batch is not set. Defaulting to  100
  Method for grid partitioning is not set. Defaulting to parallel hash+maxmin partitioning.
  Batch size limit is not set. Defaulting to    200
  By default, will store active basis functions for each batch.
  If in need of memory, prune_basis_once .false. can be used to disable this option.
  communication_type for Hartree potential was not specified.
  Defaulting to calc_hartree .
  Defaulting to Pulay charge density mixer.
  Pulay mixer: Number of relevant iterations not set.
  Defaulting to    8 iterations.
  Pulay mixer: Number of initial linear mixing iterations not set.
  Defaulting to    0 iterations.
  Work space size for distributed Hartree potential not set.
  Defaulting to   0.200000E+03 MB.
  Algorithm-dependent basis array size parameters:
  | n_max_pulay                         :        8
  Maximum number of self-consistency iterations not provided.
  Presetting  1000 iterations.
  Presetting      1001 iterations before the initial mixing cycle
  is restarted anyway using the sc_init_iter criterion / keyword.
  Presetting a factor      1.000 between actual scf density residual
  and density convergence criterion sc_accuracy_rho below which sc_init_iter
  takes no effect.
  Calculation of forces was not defined in control.in. No forces will be calculated.
  Geometry relaxation not requested: no relaxation will be performed.
  Found internal D3 parameters for xc pbe with rational (Becke-Johnson) damping.
  No accuracy limit for integral partition fn. given. Defaulting to  0.1000E-14.
  No threshold value for u(r) in integrations given. Defaulting to  0.1000E-05.
  No occupation type (smearing scheme) given. Defaulting to Gaussian broadening, width =  0.1000E-01 eV.
  The width will be adjusted in iteration number     2 of each s.c.f. cycle (i.e., each geometry step).
  No accuracy for occupation numbers given. Defaulting to  0.1000E-12.
  No threshold value for occupation numbers given. Defaulting to  0.0000E+00.
  No accuracy for fermi level given. Defaulting to  0.1000E-19.
  Maximum # of iterations to find E_F not set. Defaulting to  200.
  Preferred method for the eigenvalue solver ('KS_method') not specified in 'control.in'.
  Defaulting to serial version, LAPACK (via ELSI), since more k-points than CPUs available.
  Will not use alltoall communication since running on < 1024 CPUs.
  Threshold for basis singularities not set.
  Default threshold for basis singularities:  0.1000E-04
  partition_type (choice of integration weights) for integrals was not specified.
  | Using a version of the partition function of Stratmann and coworkers ('stratmann_sparse').
  | At each grid point, the set of atoms used to build the partition table is smoothly restricted to
  | only those atoms whose free-atom density would be non-zero at that grid point.
  Partitioning for Hartree potential was not defined. Using partition_type for integrals.
  | Adjusted default value of keyword multip_moments_threshold to:       0.10000000E-11
  | This value may affect high angular momentum components of the Hartree potential in periodic systems.
  Using 2025 definition of centers list for evaluation of the Stratmann partition function.
  Spin handling was not defined in control.in. Defaulting to unpolarized case.
  No q(lm)/r^(l+1) cutoff set for long-range Hartree potential.
  | Using default value of  0.100000E-09 .
  | Verify using the multipole_threshold keyword.
  Defaulting to new monopole extrapolation.
  Density update method: automatic selection selected.
  Using density matrix based charge density update.
  Using density matrix based charge density update.
  Using packed matrix style: index .
  Threshold of packed matrixes:  0.000000E+00
  Defaulting to use time-reversal symmetry for k-point grid.
  Charge integration errors on the 3D integration grid will be compensated
  by explicit normalization and distribution of residual charges.
  Use the "compensate_multipole_errors" flag to change this behaviour.
  Set 'collect_eigenvectors' to be '.true.' for all serial calculations. This is mandatory.
  Set 'collect_eigenvectors' to be '.true.' for KS_method lapack_fast and serial.
  Found potential conflicts with setting 'use_local_index' for this calculation. Will not set it.
 
  Consistency checks for the contents of geometry.in are next.
 

  Range separation radius for Ewald summation (hartree_convergence_parameter):      3.30948316 bohr.
  Number of empty states per atom not set in control.in .
  | Since you are using a method that relies on the unoccupied spectrum
  | (MP2,GW,RPA et al.), will use the full Hamiltonian size (see below)
  | as the max. possible number of states (occupied plus empty).

  Structure-dependent array size parameters: 
  | Maximum number of distinct radial functions  :       33
  | Maximum number of basis functions            :      452
  | Number of Kohn-Sham states (occupied + empty):      452
------------------------------------------------------------

  Checking k-grid inconsistencies now:
  | k-point density for reciprocal lattice vector 1 is    5.14 nkpts / Angstrom^-1
  | k-point density for reciprocal lattice vector 2 is    5.20 nkpts / Angstrom^-1
  | k-point density for reciprocal lattice vector 3 is    4.63 nkpts / Angstrom^-1

  | Ratio of k-point densities for reciprocal lattice vectors 1 vs 2 is    0.99
  | Ratio of k-point densities for reciprocal lattice vectors 1 vs 3 is    1.11
  | Ratio of k-point densities for reciprocal lattice vectors 2 vs 3 is    1.12

  * The specified k_grid leads to a nearly homogenous k-grid density in non-vacuum directions,
  * and seems sensible.

  | Checks passed.
  After read_input_data [GB]:    741.69

  Performing system and environment tests:
  | Environment variable OMP_NUM_THREADS correctly set to 1.
  | Checking for ScaLAPACK...
  | Testing pdtran()...
  | All pdtran() tests passed.
  | Testing CPU compatibility for run-time vs. build-time.
  | Reading /proc/cpuinfo for CPU information ...
  | Built for  : AMD EPYC 9354P 32-Core Processor
  *** WARNING: CPU mismatch detected for Node node043.aire.lee.alces.network : AMD EPYC 9634 84-Core Processor                                          
** WARNING:
  | WARNING: This FHI-aims executable was built on a different
  CPU type than the CPUs used in this run.

  | Running on different hardware than that on which a code was compiled
  | can produce incorrect results (wrong numbers) due to architecture-specific
  | optimizations made by the compiler. Those wrong numbers may occur only spuriously.
  | They are therefore very difficult to rule out even by tests ahead of time.

** END OF WARNING
  | Running on : AMD EPYC 9634 84-Core Processor
  | Runtime CPU compatibility verified.
  
  After prepare_system [GB]:    741.56

------------------------------------------------------------
          Preparing all fixed parts of the calculation.
------------------------------------------------------------
  Determining machine precision:
    2.225073858507201E-308
  Setting up grids for atomic and cluster calculations.

  Creating wave function, potential, and density for free atoms.
  Runtime choices for atomic solver:
  | atomic solver xc        : PBE
  | compute density gradient: 1
  | compute kinetic density : F

  Species: Na

  List of occupied orbitals and eigenvalues:
    n    l              occ      energy [Ha]    energy [eV]
    1    0           2.0000       -38.034936     -1034.9833
    2    0           2.0000        -2.081399       -56.6377
    3    0           1.0000        -0.097724        -2.6592
    2    1           6.0000        -1.049345       -28.5541


  Species: S

  List of occupied orbitals and eigenvalues:
    n    l              occ      energy [Ha]    energy [eV]
    1    0           2.0000       -88.680731     -2413.1255
    2    0           2.0000        -7.781719      -211.7513
    3    0           2.0000        -0.633662       -17.2428
    2    1           6.0000        -5.751976      -156.5192
    3    1           4.0000        -0.257086        -6.9957


  Species: O

  List of occupied orbitals and eigenvalues:
    n    l              occ      energy [Ha]    energy [eV]
    1    0           2.0000       -18.927378      -515.0401
    2    0           2.0000        -0.880539       -23.9607
    2    1           4.0000        -0.331811        -9.0290


  Adding cutoff potential to free-atom effective potential.
  Creating fixed part of basis set: Ionic, confined, hydrogenic.
 
  Na                   hydrogenic:
 
  List of hydrogenic basis orbitals: 
    n    l      effective z      eigenvalue [eV]  inner max. [A]     outer max. [A]     outer radius [A]   
    2    1         1.200000        -4.8636           1.741750           1.741750           6.442804
    3    0         1.800000        -4.3244           0.217979           3.539338           6.522051
    3    2         3.800000       -21.8293           1.252092           1.252092           5.771541
    4    1         3.100000        -7.5452           0.482520           3.762428           6.522051
    3    0        10.000000      -151.1743           0.039366           0.687834           3.170581
    4    3         6.200000       -32.6874           1.363958           1.363958           5.563704
    4    2         1.300000         2.5435           1.944326           4.464755           6.522051
 
 
  S                    ion:

  List of free ionic orbitals and eigenvalues:
    n    l      energy [Ha]    energy [eV]
    1    0       -89.703778     -2440.9640
    2    0        -8.775428      -238.7916
    3    0        -1.470343       -40.0101
    2    1        -6.747660      -183.6132
    3    1        -1.048627       -28.5346


  List of ionic basis orbitals and eigenvalues:
    n    l      energy [Ha]    energy [eV]    outer radius [A]
    3    2        -0.495605       -13.4861       5.386362
    3    0        -1.470336       -40.0099       3.967934

 
  S                    hydrogenic:
 
  List of hydrogenic basis orbitals: 
    n    l      effective z      eigenvalue [eV]  inner max. [A]     outer max. [A]     outer radius [A]   
    2    1         1.800000       -11.0118           1.168531           1.168531           5.452614
    4    3         7.000000       -41.6672           1.212182           1.212182           5.066981
    4    2         6.200000       -32.6848           0.582121           1.814567           5.386362
    5    4        10.800000       -63.4785           1.227092           1.227092           4.766538
 
 
  O                    hydrogenic:
 
  List of hydrogenic basis orbitals: 
    n    l      effective z      eigenvalue [eV]  inner max. [A]     outer max. [A]     outer radius [A]   
    2    1         1.800000       -11.0118           1.178562           1.178562           5.432602
    3    2         7.600000       -87.3182           0.624125           0.624125           3.541477
    3    0         6.400000       -61.9209           0.061167           1.081902           4.306578
    4    3        11.600000      -114.4238           0.731631           0.731631           3.585037
    3    1         6.200000       -58.1113           0.255680           1.030270           4.306578
    3    2         5.600000       -47.4081           0.847233           0.847233           4.413171
    5    4        17.600000      -168.5799           0.749740           0.749740           3.372465
    1    0         0.750000        -7.6499           0.705284           0.705284           5.366593
 
  Creating atomic-like basis functions for current effective potential.

  Species Na                  :

  List of atomic basis orbitals and eigenvalues:
    n    l      energy [Ha]    energy [eV]    outer radius [A]
    1    0       -38.034936     -1034.9833       1.017136
    2    0        -2.081399       -56.6377       4.251681
    3    0        -0.097724        -2.6592       6.442804
    2    1        -1.049345       -28.5541       5.496102


  Species S                   :

  List of atomic basis orbitals and eigenvalues:
    n    l      energy [Ha]    energy [eV]    outer radius [A]
    1    0       -88.680731     -2413.1255       0.682391
    2    0        -7.781719      -211.7513       2.289014
    3    0        -0.633662       -17.2428       5.256262
    2    1        -5.751976      -156.5192       2.555240
    3    1        -0.257086        -6.9957       5.386362


  Species O                   :

  List of atomic basis orbitals and eigenvalues:
    n    l      energy [Ha]    energy [eV]    outer radius [A]
    1    0       -18.927378      -515.0401       1.415765
    2    0        -0.880539       -23.9607       5.048385
    2    1        -0.331811        -9.0290       5.301386

  Assembling full basis from fixed parts.
  | Species Na :   atomic orbital   1 s accepted.
  | Species Na :    hydro orbital   3 s accepted.
  | Species Na :   atomic orbital   2 s accepted.
  | Species Na :   atomic orbital   3 s accepted.
  | Species Na :    hydro orbital   3 s accepted.
  | Species Na :   atomic orbital   2 p accepted.
  | Species Na :    hydro orbital   2 p accepted.
  | Species Na :    hydro orbital   4 p accepted.
  | Species Na :    hydro orbital   3 d accepted.
  | Species Na :    hydro orbital   4 d accepted.
  | Species Na :    hydro orbital   4 f accepted.
  | Species S :   atomic orbital   1 s accepted.
  | Species S :   atomic orbital   2 s accepted.
  | Species S :    ionic orbital   3 s accepted.
  | Species S :   atomic orbital   3 s accepted.
  | Species S :   atomic orbital   2 p accepted.
  | Species S :   atomic orbital   3 p accepted.
  | Species S :    hydro orbital   2 p accepted.
  | Species S :    ionic orbital   3 d accepted.
  | Species S :    hydro orbital   4 d accepted.
  | Species S :    hydro orbital   4 f accepted.
  | Species S :    hydro orbital   5 g accepted.
  | Species O :   atomic orbital   1 s accepted.
  | Species O :    hydro orbital   3 s accepted.
  | Species O :   atomic orbital   2 s accepted.
  | Species O :    hydro orbital   1 s accepted.
  | Species O :    hydro orbital   3 p accepted.
  | Species O :   atomic orbital   2 p accepted.
  | Species O :    hydro orbital   2 p accepted.
  | Species O :    hydro orbital   3 d accepted.
  | Species O :    hydro orbital   3 d accepted.
  | Species O :    hydro orbital   4 f accepted.
  | Species O :    hydro orbital   5 g accepted.
 
  Basis size parameters after reduction:
  | Total number of radial functions:       33
  | Total number of basis functions :      452
 
  Per-task memory consumption for arrays in subroutine allocate_ext:
  |          11.476732MB.
  Testing on-site integration grid accuracy.
  |  Species  Function  <phi|h_atom|phi> (log., in eV)  <phi|h_atom|phi> (rad., in eV)
           1        1              -1034.9832809642              -1034.9832689337
           1        2                 35.0424099465                 35.0423065920
           1        3                -46.6183147006                -46.6183800126
           1        4                  3.4914316841                  3.4912093156
           1        5                 10.1991361766                 10.1980425968
           1        6                -28.5541301943                -28.5541301509
           1        7                  0.1022857395                  0.1020647590
           1        8                  5.6444254243                  5.6427131138
           1        9                 10.2082620462                 10.2082500060
           1       10                  7.4165305588                  7.4282730662
           1       11                 23.2555289252                 23.2555370964
           2       12              -2413.1254568977              -2413.1254096663
           2       13               -211.7513411281               -211.7513404762
           2       14                -16.9725280787                -16.9725279206
           2       15                  7.6024436204                  7.6024549059
           2       16               -156.5192206929               -156.5192205451
           2       17                 -6.9959757887                 -6.9959777655
           2       18                  6.8896462808                  6.8895564741
           2       19                  6.0214250550                  6.0214220200
           2       20                 19.6206468977                 19.6206494558
           2       21                 24.7008710786                 24.7008710738
           2       22                 47.5292252001                 47.5292260486
           3       23               -515.0401491148               -515.0401445497
           3       24                 15.1629302771                 15.1629233102
           3       25                -21.6127103295                -21.6127145449
           3       26                 14.4001435709                 14.4001765990
           3       27                 20.8862585187                 20.8862589491
           3       28                 -2.4803658578                 -2.4803665016
           3       29                 13.8586387760                 13.8586021622
           3       30                 45.8331828879                 45.8331828941
           3       31                 52.1851961049                 52.1851977023
           3       32                 85.4133898762                 85.4133899074
           3       33                142.1023296234                142.1023296272

  Preparing densities etc. for the partition functions (integrals / Hartree potential).

  Preparations completed.
  max(cpu_time)          :      0.205 s.
  Wall clock time (cpu1) :      0.206 s.
------------------------------------------------------------
  After prepare_scf [GB]:    740.81

  Initializing index lists of integration centers etc. from given atomic structure:
  Mapping all atomic coordinates to central unit cell.

  Initializing the k-points
  Using symmetry for reducing the k-points
  | k-points reduced from:      210 to      106
  | Number of k-points                             :       106
  The eigenvectors in the calculations are COMPLEX.
  | K-points in task   0:         4
  | K-points in task   1:         5
  | K-points in task   2:         5
  | K-points in task   3:         5
  | K-points in task   4:         5
  | K-points in task   5:         5
  | K-points in task   6:         5
  | K-points in task   7:         5
  | K-points in task   8:         5
  | K-points in task   9:         5
  | K-points in task  10:         5
  | K-points in task  11:         4
  | K-points in task  12:         4
  | K-points in task  13:         4
  | K-points in task  14:         4
  | K-points in task  15:         4
  | K-points in task  16:         4
  | K-points in task  17:         4
  | K-points in task  18:         4
  | K-points in task  19:         4
  | K-points in task  20:         4
  | K-points in task  21:         4
  | K-points in task  22:         4
  | K-points in task  23:         4
  | Consuming        347 KiB for k_phase_exx.
  | Number of basis functions in the Hamiltonian integrals       :      8182
  | Number of basis functions in a single unit cell              :       452
  | Number of centers in hartree potential                       :      1546
  | Number of centers in hartree multipole                       :      1202
  | Number of centers in electron density summation              :       900
  | Number of centers in basis integrals                         :       982
  | Number of centers in integrals                               :       338
  | Number of centers in hamiltonian                             :      1272
  | Number of centers in partition table from touching 0-cell    :       652
  | Number of centers in partition table total                   :      1548
  | Consuming        261 KiB for k_phase.
  | Number of super-cells (origin) [n_cells]                     :         729
  | Number of super-cells (after PM_index) [n_cells]             :         158
  | Number of super-cells in hamiltonian [n_cells_in_hamiltonian]:         158
  | Size of matrix packed + index [n_hamiltonian_matrix_size]    :     2280303
  | Size of matrix packed + index (no_symmetry):     4549881
  After initialize_bc_dependent_lists [GB]:    739.99

------------------------------------------------------------
          Begin self-consistency loop: Initialization.

          Date     :  20251113, Time     :  171120.949
------------------------------------------------------------
  Available memory per node after initialize_hartree_non_periodic_ewald [GB]:    739.98
  | Estimated reciprocal-space cutoff momentum G_max:         2.98580651 bohr^-1 .
  | Reciprocal lattice points for long-range Hartree potential:     466
  Available memory per node after initialize_recip_hartree_potential [GB]:    739.98
  Available memory per node after initialize_scalapack [GB]:    739.98
  Available memory per node after aims_elsi_init_scf [GB]:    739.98
  Available memory per node after initialize_fixed_grids [GB]:    739.98
  Partitioning the integration grid into batches with parallel hashing+maxmin method.
  | Number of batches:     3490
  | Maximal batch size:     114
  | Minimal batch size:      51
  | Average batch size:      72.041
  | Standard deviation of batch sizes:      13.443

  Integration load balanced across    24 MPI tasks.
  Work distribution over tasks is as follows:
  Task     0 has      10446 integration points.
  Task     1 has      10491 integration points.
  Task     2 has      10488 integration points.
  Task     3 has      10442 integration points.
  Task     4 has      10493 integration points.
  Task     5 has      10482 integration points.
  Task     6 has      10471 integration points.
  Task     7 has      10487 integration points.
  Task     8 has      10484 integration points.
  Task     9 has      10497 integration points.
  Task    10 has      10496 integration points.
  Task    11 has      10447 integration points.
  Task    12 has      10487 integration points.
  Task    13 has      10491 integration points.
  Task    14 has      10490 integration points.
  Task    15 has      10442 integration points.
  Task    16 has      10495 integration points.
  Task    17 has      10486 integration points.
  Task    18 has      10457 integration points.
  Task    19 has      10474 integration points.
  Task    20 has      10482 integration points.
  Task    21 has      10500 integration points.
  Task    22 has      10440 integration points.
  Task    23 has      10456 integration points.
  Available memory per node after partition_grid [GB]:    739.99
  Initializing partition tables, free-atom densities, potentials, etc. across the integration grid (initialize_grid_storage).
  | initialize_grid_storage: Actual outermost partition radius vs. multipole_radius_free
  | (-- VB: in principle, multipole_radius_free should be larger, hence this output)
  | Species        1: Confinement radius =              7.000000000000000 AA, multipole_radius_free =              7.018424581658096 AA.
  | Species        1: outer_partition_radius set to              7.018424581658096 AA .
  | Species        2: Confinement radius =              6.000000000000000 AA, multipole_radius_free =              6.012827091137924 AA.
  | Species        2: outer_partition_radius set to              6.012827091137924 AA .
  | Species        3: Confinement radius =              6.000000000000000 AA, multipole_radius_free =              6.064445521808699 AA.
  | Species        3: outer_partition_radius set to              6.064445521808699 AA .
  | The sparse table of interatomic distances needs      14113.25 kbyte instead of     19170.43 kbyte of memory.
  | Net number of integration points:   251424
  | of which are non-zero points    :   188460
  | Numerical average free-atom electrostatic potential    :    -10.98221480 eV
  Available memory per node after initialize_grid_storage_p1 [GB]:    739.96
  Renormalizing the initial density to the exact electron count on the 3D integration grid.
  | Initial density: Formal number of electrons (from input files) :     118.0000000000
  | Integrated number of electrons on 3D grid     :     117.9997966385
  | Charge integration error                      :      -0.0002033615
  | Normalization factor for density and gradient :       1.0000017234
  Renormalizing the free-atom superposition density to the exact electron count on the 3D integration grid.
  | Formal number of electrons (from input files) :     118.0000000000
  | Integrated number of electrons on 3D grid     :     117.9997966385
  | Charge integration error                      :      -0.0002033615
  | Normalization factor for density and gradient :       1.0000017234
  Obtaining max. number of non-zero basis functions in each batch (get_n_compute_maxes).
  | Maximal number of non-zero basis functions:     1694 in task     0
  | Maximal number of non-zero basis functions:     1681 in task     1
  | Maximal number of non-zero basis functions:     1692 in task     2
  | Maximal number of non-zero basis functions:     1720 in task     3
  | Maximal number of non-zero basis functions:     1698 in task     4
  | Maximal number of non-zero basis functions:     1674 in task     5
  | Maximal number of non-zero basis functions:     1720 in task     6
  | Maximal number of non-zero basis functions:     1687 in task     7
  | Maximal number of non-zero basis functions:     1730 in task     8
  | Maximal number of non-zero basis functions:     1723 in task     9
  | Maximal number of non-zero basis functions:     1726 in task    10
  | Maximal number of non-zero basis functions:     1692 in task    11
  | Maximal number of non-zero basis functions:     1722 in task    12
  | Maximal number of non-zero basis functions:     1704 in task    13
  | Maximal number of non-zero basis functions:     1696 in task    14
  | Maximal number of non-zero basis functions:     1691 in task    15
  | Maximal number of non-zero basis functions:     1723 in task    16
  | Maximal number of non-zero basis functions:     1694 in task    17
  | Maximal number of non-zero basis functions:     1730 in task    18
  | Maximal number of non-zero basis functions:     1691 in task    19
  | Maximal number of non-zero basis functions:     1689 in task    20
  | Maximal number of non-zero basis functions:     1723 in task    21
  | Maximal number of non-zero basis functions:     1723 in task    22
  | Maximal number of non-zero basis functions:     1706 in task    23
  Available memory per node after get_n_compute_maxes_p1 [GB]:    739.77
  Allocating       12.470 MB for KS_eigenvector_complex
  Available memory per node after allocate_matrices [GB]:    739.58
  Available memory per node after init_comm_sparse_local_matrix_scalapack [GB]:    739.57
  Integrating Hamiltonian matrix: batch-based integration.
  Time summed over all CPUs for integration: real work       72.523 s, elapsed       82.177 s
  Available memory per node after integrate hamiltonian matrix [GB]:    738.41
  Integrating overlap matrix.
  Time summed over all CPUs for integration: real work       59.001 s, elapsed       70.405 s
  Available memory per node after integrate ovlp matrix [GB]:    737.90
  Available memory per node after ASI_callbacks invoke [GB]:    737.90
  Available memory per node after save_overlap_scalapack [GB]:    737.90

  Updating Kohn-Sham eigenvalues and eigenvectors using ELSI and the (modified) LAPACK eigensolver.
  Singularity check in k-point 24, task 0 (analysis for other k-points/tasks may follow below):
  Overlap matrix is not singular
  | Lowest and highest eigenvalues :  0.7611E-04,  0.1727E+02
  Finished singularity check of overlap matrix
  | Time :     0.045 s
  Starting LAPACK eigensolver
  Finished Cholesky decomposition
  | Time :     0.009 s
  Finished transformation to standard eigenproblem
  | Time :     0.013 s
  Finished solving standard eigenproblem
  | Time :     0.069 s
  Finished back-transformation of eigenvectors
  | Time :     0.010 s

  Obtaining occupation numbers and electronic chemical potential using ELSI.
  | Note that, for insulating systems, the printed 'chemical potential' value is not uniquely defined.
  | It can be anywhere in the energy gap, as long as it correctly separates occupied and unoccupied states.
  | In systems with a gap, the physically relevant chemical potential is the VBM or HOMO.

  | Chemical potential (Fermi level):    -6.99615331 eV
  Available memory per node after advance_KS_solution [GB]:    737.87
  Writing Kohn-Sham eigenvalues.
  K-point:       1 at    0.000000    0.000000    0.000000 (in units of recip. lattice)

  State    Occupation    Eigenvalue [Ha]    Eigenvalue [eV]
      1       2.00000         -88.726640        -2414.37471
      2       2.00000         -88.726640        -2414.37471
      3       2.00000         -38.038343        -1035.07598
      4       2.00000         -38.038343        -1035.07598
      5       2.00000         -19.021044         -517.58895
      6       2.00000         -19.021044         -517.58895
      7       2.00000         -19.018298         -517.51421
      8       2.00000         -19.018298         -517.51421
      9       2.00000         -19.017348         -517.48838
     10       2.00000         -19.017348         -517.48838
     11       2.00000         -18.975403         -516.34698
     12       2.00000         -18.975401         -516.34692
     13       2.00000          -7.837481         -213.26871
     14       2.00000          -7.837481         -213.26871
     15       2.00000          -5.808383         -158.05415
     16       2.00000          -5.808383         -158.05414
     17       2.00000          -5.808057         -158.04527
     18       2.00000          -5.808057         -158.04527
     19       2.00000          -5.804115         -157.93800
     20       2.00000          -5.804115         -157.93800
     21       2.00000          -2.086640          -56.78037
     22       2.00000          -2.086596          -56.77917
     23       2.00000          -1.188203          -32.33266
     24       2.00000          -1.174281          -31.95381
     25       2.00000          -1.086610          -29.56816
     26       2.00000          -1.080467          -29.40099
     27       2.00000          -1.079816          -29.38330
     28       2.00000          -1.077504          -29.32037
     29       2.00000          -1.075632          -29.26945
     30       2.00000          -1.055122          -28.71133
     31       2.00000          -1.054882          -28.70481
     32       2.00000          -1.052887          -28.65052
     33       2.00000          -1.052090          -28.62882
     34       2.00000          -1.051084          -28.60146
     35       2.00000          -1.050809          -28.59397
     36       2.00000          -0.930666          -25.32471
     37       2.00000          -0.694120          -18.88798
     38       2.00000          -0.671188          -18.26395
     39       2.00000          -0.603490          -16.42179
     40       2.00000          -0.590281          -16.06236
     41       2.00000          -0.582978          -15.86363
     42       2.00000          -0.577266          -15.70821
     43       2.00000          -0.576142          -15.67763
     44       2.00000          -0.570439          -15.52244
     45       2.00000          -0.506309          -13.77737
     46       2.00000          -0.494340          -13.45169
     47       2.00000          -0.490363          -13.34345
     48       2.00000          -0.486664          -13.24279
     49       2.00000          -0.481902          -13.11321
     50       2.00000          -0.465296          -12.66134
     51       2.00000          -0.459654          -12.50783
     52       2.00000          -0.456359          -12.41816
     53       2.00000          -0.442345          -12.03682
     54       2.00000          -0.439389          -11.95638
     55       2.00000          -0.424049          -11.53896
     56       2.00000          -0.420352          -11.43836
     57       2.00000          -0.419948          -11.42736
     58       2.00000          -0.414640          -11.28294
     59       2.00000          -0.342008           -9.30651
     60       0.00000          -0.167272           -4.55172
     61       0.00000          -0.133370           -3.62917
     62       0.00000          -0.046321           -1.26046
     63       0.00000          -0.044028           -1.19807
     64       0.00000          -0.024126           -0.65650
     65       0.00000          -0.002736           -0.07445
     66       0.00000           0.021778            0.59260
     67       0.00000           0.031555            0.85867
     68       0.00000           0.039489            1.07456
     69       0.00000           0.048594            1.32232
     70       0.00000           0.054949            1.49524
     71       0.00000           0.101688            2.76706
     72       0.00000           0.115036            3.13029
     73       0.00000           0.133299            3.62725
     74       0.00000           0.140301            3.81779
     75       0.00000           0.148072            4.02924
     76       0.00000           0.148919            4.05230
     77       0.00000           0.149765            4.07530
     78       0.00000           0.167154            4.54850
     79       0.00000           0.167659            4.56225
     80       0.00000           0.210799            5.73614
     81       0.00000           0.256972            6.99255
     82       0.00000           0.275853            7.50635
     83       0.00000           0.286927            7.80769
     84       0.00000           0.289642            7.88156
     85       0.00000           0.311262            8.46988
     86       0.00000           0.324303            8.82474
     87       0.00000           0.328337            8.93451
     88       0.00000           0.350739            9.54409
     89       0.00000           0.360908            9.82081
     90       0.00000           0.366100            9.96209
     91       0.00000           0.400086           10.88690
     92       0.00000           0.414898           11.28996
     93       0.00000           0.446190           12.14144
     94       0.00000           0.467297           12.71581
     95       0.00000           0.468096           12.73754
     96       0.00000           0.482945           13.14160
     97       0.00000           0.486721           13.24435
     98       0.00000           0.521962           14.20330
     99       0.00000           0.523556           14.24667
    100       0.00000           0.550265           14.97347
    101       0.00000           0.570217           15.51639
    102       0.00000           0.580023           15.78323
    103       0.00000           0.582228           15.84324
    104       0.00000           0.599554           16.31469
    105       0.00000           0.623274           16.96016
    106       0.00000           0.637829           17.35621
    107       0.00000           0.651246           17.72130
    108       0.00000           0.666582           18.13862
    109       0.00000           0.684339           18.62180
    110       0.00000           0.708589           19.28169
    111       0.00000           0.727301           19.79087
    112       0.00000           0.750125           20.41194
    113       0.00000           0.759303           20.66170
    114       0.00000           0.771557           20.99512
    115       0.00000           0.778797           21.19213
    116       0.00000           0.783399           21.31736
    117       0.00000           0.817226           22.23786
    118       0.00000           0.827079           22.50597
    119       0.00000           0.837484           22.78911
    120       0.00000           0.841651           22.90250
    121       0.00000           0.845641           23.01106
    122       0.00000           0.860688           23.42051
    123       0.00000           0.879676           23.93720
    124       0.00000           0.905077           24.62840
    125       0.00000           0.906825           24.67596
    126       0.00000           0.923859           25.13948
    127       0.00000           0.946651           25.75968
    128       0.00000           0.948850           25.81952
    129       0.00000           0.952914           25.93012
    130       0.00000           0.965610           26.27559
    131       0.00000           0.998232           27.16328
    132       0.00000           0.999233           27.19051
    133       0.00000           1.036643           28.20850
    134       0.00000           1.037170           28.22282
    135       0.00000           1.054810           28.70285
    136       0.00000           1.067370           29.04461
    137       0.00000           1.071791           29.16492
    138       0.00000           1.088291           29.61392
    139       0.00000           1.097947           29.87665
    140       0.00000           1.111912           30.25668
    141       0.00000           1.124726           30.60534
    142       0.00000           1.129863           30.74513
    143       0.00000           1.133663           30.84853
    144       0.00000           1.147405           31.22247
    145       0.00000           1.162906           31.64428
    146       0.00000           1.162926           31.64483
    147       0.00000           1.182621           32.18074
    148       0.00000           1.209291           32.90647
    149       0.00000           1.231533           33.51173
    150       0.00000           1.239790           33.73640
    151       0.00000           1.245658           33.89607
    152       0.00000           1.260879           34.31026
    153       0.00000           1.287466           35.03373
    154       0.00000           1.297673           35.31148
    155       0.00000           1.317026           35.83811
    156       0.00000           1.330879           36.21506
    157       0.00000           1.346882           36.65051
    158       0.00000           1.356367           36.90863
    159       0.00000           1.366053           37.17218
    160       0.00000           1.372799           37.35576
    161       0.00000           1.381551           37.59392
    162       0.00000           1.392802           37.90007
    163       0.00000           1.394847           37.95572
    164       0.00000           1.412890           38.44668
    165       0.00000           1.421421           38.67884
    166       0.00000           1.462051           39.78443
    167       0.00000           1.493653           40.64435
    168       0.00000           1.497121           40.73872
    169       0.00000           1.523735           41.46293
    170       0.00000           1.537577           41.83959
    171       0.00000           1.553554           42.27436
    172       0.00000           1.572332           42.78532
    173       0.00000           1.585070           43.13195
    174       0.00000           1.603881           43.64383
    175       0.00000           1.620250           44.08926
    176       0.00000           1.620666           44.10056
    177       0.00000           1.639863           44.62293
    178       0.00000           1.661685           45.21675
    179       0.00000           1.686908           45.90311
    180       0.00000           1.690833           46.00989
    181       0.00000           1.702949           46.33961
    182       0.00000           1.708828           46.49956
    183       0.00000           1.716731           46.71463
    184       0.00000           1.742020           47.40277
    185       0.00000           1.762876           47.97029
    186       0.00000           1.766234           48.06168
    187       0.00000           1.774954           48.29895
    188       0.00000           1.787463           48.63934
    189       0.00000           1.802435           49.04676
    190       0.00000           1.845041           50.20613
    191       0.00000           1.853050           50.42406
    192       0.00000           1.863585           50.71074
    193       0.00000           1.864484           50.73519
    194       0.00000           1.902374           51.76622
    195       0.00000           1.909278           51.95409
    196       0.00000           1.930349           52.52747
    197       0.00000           1.948139           53.01156
    198       0.00000           1.954780           53.19226
    199       0.00000           1.977748           53.81726
    200       0.00000           1.981533           53.92027
    201       0.00000           1.993983           54.25904
    202       0.00000           2.028364           55.19459
    203       0.00000           2.043079           55.59500
    204       0.00000           2.063788           56.15853
    205       0.00000           2.078361           56.55509
    206       0.00000           2.124702           57.81609
    207       0.00000           2.126970           57.87780
    208       0.00000           2.143977           58.34058
    209       0.00000           2.173623           59.14730
    210       0.00000           2.193316           59.68317
    211       0.00000           2.209023           60.11058
    212       0.00000           2.230540           60.69608
    213       0.00000           2.268176           61.72021
    214       0.00000           2.287049           62.23377
    215       0.00000           2.306462           62.76202
    216       0.00000           2.312735           62.93272
    217       0.00000           2.329768           63.39621
    218       0.00000           2.351032           63.97483
    219       0.00000           2.359228           64.19786
    220       0.00000           2.388509           64.99464
    221       0.00000           2.407734           65.51779
    222       0.00000           2.422252           65.91283
    223       0.00000           2.440567           66.41121
    224       0.00000           2.465728           67.09588
    225       0.00000           2.490367           67.76634
    226       0.00000           2.512136           68.35871
    227       0.00000           2.520993           68.59970
    228       0.00000           2.565664           69.81528
    229       0.00000           2.578064           70.15269
    230       0.00000           2.605654           70.90347
    231       0.00000           2.636180           71.73412
    232       0.00000           2.646084           72.00360
    233       0.00000           2.657610           72.31726
    234       0.00000           2.686391           73.10042
    235       0.00000           2.695970           73.36107
    236       0.00000           2.711041           73.77117
    237       0.00000           2.757962           75.04797
    238       0.00000           2.784701           75.77557
    239       0.00000           2.813090           76.54807
    240       0.00000           2.844831           77.41179
    241       0.00000           2.851863           77.60314
    242       0.00000           2.882808           78.44520
    243       0.00000           2.914078           79.29609
    244       0.00000           2.916709           79.36770
    245       0.00000           2.924895           79.59045
    246       0.00000           2.939628           79.99134
    247       0.00000           2.958177           80.49610
    248       0.00000           2.988178           81.31247
    249       0.00000           2.990693           81.38090
    250       0.00000           3.029404           82.43427
    251       0.00000           3.039038           82.69643
    252       0.00000           3.061227           83.30022
    253       0.00000           3.106214           84.52437
    254       0.00000           3.138712           85.40869
    255       0.00000           3.146931           85.63235
    256       0.00000           3.154374           85.83488
    257       0.00000           3.185371           86.67835
    258       0.00000           3.208540           87.30881
    259       0.00000           3.215288           87.49243
    260       0.00000           3.243498           88.26007
    261       0.00000           3.278154           89.20311
    262       0.00000           3.297562           89.73123
    263       0.00000           3.311643           90.11438
    264       0.00000           3.330227           90.62010
    265       0.00000           3.343335           90.97677
    266       0.00000           3.355769           91.31513
    267       0.00000           3.400106           92.52158
    268       0.00000           3.405681           92.67329
    269       0.00000           3.415323           92.93566
    270       0.00000           3.433095           93.41926
    271       0.00000           3.466215           94.32052
    272       0.00000           3.498132           95.18903
    273       0.00000           3.513132           95.59719
    274       0.00000           3.519446           95.76901
    275       0.00000           3.552510           96.66871
    276       0.00000           3.562743           96.94716
    277       0.00000           3.575347           97.29014
    278       0.00000           3.586687           97.59872
    279       0.00000           3.603667           98.06077
    280       0.00000           3.642408           99.11495
    281       0.00000           3.688996          100.38268
    282       0.00000           3.716236          101.12391
    283       0.00000           3.716598          101.13377
    284       0.00000           3.726576          101.40529
    285       0.00000           3.727289          101.42468
    286       0.00000           3.751766          102.09073
    287       0.00000           3.770799          102.60867
    288       0.00000           3.806994          103.59357
    289       0.00000           3.808571          103.63649
    290       0.00000           3.820883          103.97152
    291       0.00000           3.827299          104.14610
    292       0.00000           3.859575          105.02438
    293       0.00000           3.885924          105.74136
    294       0.00000           3.887371          105.78075
    295       0.00000           3.933768          107.04326
    296       0.00000           3.944293          107.32968
    297       0.00000           3.965195          107.89844
    298       0.00000           3.987913          108.51663
    299       0.00000           3.998233          108.79745
    300       0.00000           4.019513          109.37653
    301       0.00000           4.024859          109.52200
    302       0.00000           4.039079          109.90893
    303       0.00000           4.052465          110.27317
    304       0.00000           4.078437          110.97990
    305       0.00000           4.107890          111.78138
    306       0.00000           4.121459          112.15059
    307       0.00000           4.133996          112.49175
    308       0.00000           4.180003          113.74367
    309       0.00000           4.193202          114.10284
    310       0.00000           4.194834          114.14723
    311       0.00000           4.224532          114.95537
    312       0.00000           4.248332          115.60299
    313       0.00000           4.286532          116.64248
    314       0.00000           4.288771          116.70340
    315       0.00000           4.296435          116.91194
    316       0.00000           4.303685          117.10924
    317       0.00000           4.326349          117.72594
    318       0.00000           4.386094          119.35169
    319       0.00000           4.407895          119.94493
    320       0.00000           4.411023          120.03003
    321       0.00000           4.431415          120.58495
    322       0.00000           4.486174          122.07500
    323       0.00000           4.495519          122.32930
    324       0.00000           4.516894          122.91094
    325       0.00000           4.524751          123.12473
    326       0.00000           4.550961          123.83794
    327       0.00000           4.571016          124.38367
    328       0.00000           4.581736          124.67538
    329       0.00000           4.660636          126.82235
    330       0.00000           4.662425          126.87103
    331       0.00000           4.665075          126.94316
    332       0.00000           4.703992          128.00213
    333       0.00000           4.712036          128.22101
    334       0.00000           4.739869          128.97840
    335       0.00000           4.758442          129.48380
    336       0.00000           4.799621          130.60434
    337       0.00000           4.818228          131.11067
    338       0.00000           4.841230          131.73656
    339       0.00000           4.874032          132.62915
    340       0.00000           4.907301          133.53447
    341       0.00000           4.912451          133.67460
    342       0.00000           4.951704          134.74273
    343       0.00000           4.979134          135.48914
    344       0.00000           5.021828          136.65091
    345       0.00000           5.028447          136.83102
    346       0.00000           5.042157          137.20408
    347       0.00000           5.085920          138.39493
    348       0.00000           5.109921          139.04804
    349       0.00000           5.133501          139.68967
    350       0.00000           5.166601          140.59037
    351       0.00000           5.169163          140.66007
    352       0.00000           5.191833          141.27698
    353       0.00000           5.204256          141.61501
    354       0.00000           5.224395          142.16303
    355       0.00000           5.237335          142.51515
    356       0.00000           5.246036          142.75191
    357       0.00000           5.276739          143.58737
    358       0.00000           5.291327          143.98432
    359       0.00000           5.293001          144.02989
    360       0.00000           5.309840          144.48810
    361       0.00000           5.326867          144.95144
    362       0.00000           5.354439          145.70171
    363       0.00000           5.363931          145.96000
    364       0.00000           5.388465          146.62759
    365       0.00000           5.401018          146.96919
    366       0.00000           5.421341          147.52219
    367       0.00000           5.463603          148.67220
    368       0.00000           5.474250          148.96193
    369       0.00000           5.480600          149.13472
    370       0.00000           5.503117          149.74743
    371       0.00000           5.532583          150.54925
    372       0.00000           5.555154          151.16344
    373       0.00000           5.572555          151.63693
    374       0.00000           5.577102          151.76068
    375       0.00000           5.582990          151.92090
    376       0.00000           5.595859          152.27107
    377       0.00000           5.636445          153.37546
    378       0.00000           5.670544          154.30335
    379       0.00000           5.677514          154.49300
    380       0.00000           5.703512          155.20045
    381       0.00000           5.720964          155.67535
    382       0.00000           5.764004          156.84653
    383       0.00000           5.780223          157.28786
    384       0.00000           5.837079          158.83501
    385       0.00000           5.868359          159.68619
    386       0.00000           5.872043          159.78643
    387       0.00000           5.913689          160.91967
    388       0.00000           5.941810          161.68488
    389       0.00000           5.965624          162.33288
    390       0.00000           5.976712          162.63461
    391       0.00000           5.986294          162.89534
    392       0.00000           5.991914          163.04828
    393       0.00000           6.020563          163.82786
    394       0.00000           6.048096          164.57706
    395       0.00000           6.087549          165.65063
    396       0.00000           6.099612          165.97889
    397       0.00000           6.174966          168.02938
    398       0.00000           6.181735          168.21356
    399       0.00000           6.203259          168.79928
    400       0.00000           6.235852          169.68616
    401       0.00000           6.279842          170.88319
    402       0.00000           6.298343          171.38664
    403       0.00000           6.309923          171.70175
    404       0.00000           6.336042          172.41248
    405       0.00000           6.342960          172.60073
    406       0.00000           6.387971          173.82555
    407       0.00000           6.415288          174.56888
    408       0.00000           6.438985          175.21369
    409       0.00000           6.505214          177.01587
    410       0.00000           6.558168          178.45683
    411       0.00000           6.561663          178.55193
    412       0.00000           6.566987          178.69682
    413       0.00000           6.609846          179.86306
    414       0.00000           6.624169          180.25281
    415       0.00000           6.643951          180.79110
    416       0.00000           6.738065          183.35208
    417       0.00000           6.795862          184.92481
    418       0.00000           6.813555          185.40627
    419       0.00000           6.816274          185.48026
    420       0.00000           6.893498          187.58163
    421       0.00000           6.947308          189.04587
    422       0.00000           7.009514          190.73857
    423       0.00000           7.010623          190.76877
    424       0.00000           7.044165          191.68149
    425       0.00000           7.112259          193.53440
    426       0.00000           7.129579          194.00571
    427       0.00000           7.199752          195.91522
    428       0.00000           7.256161          197.45020
    429       0.00000           7.283598          198.19679
    430       0.00000           7.311736          198.96246
    431       0.00000           7.416737          201.81967
    432       0.00000           7.426941          202.09735
    433       0.00000           7.574964          206.12526
    434       0.00000           7.578764          206.22867
    435       0.00000           7.677097          208.90444
    436       0.00000           7.753366          210.97983
    437       0.00000           7.888795          214.66504
    438       0.00000           8.136423          221.40335
    439       0.00000           8.427773          229.33138
    440       0.00000           8.760769          238.39264
    441       0.00000           8.957546          243.74723
    442       0.00000           9.745456          265.18735
    443       0.00000          12.293699          334.52858
    444       0.00000          13.959775          379.86481
    445       0.00000          22.314362          607.20469
    446       0.00000          25.689672          699.05154
    447       0.00000          26.284983          715.25079
    448       0.00000          26.339262          716.72780
    449       0.00000          27.187899          739.82038
    450       0.00000          27.522585          748.92764
    451       0.00000          27.806366          756.64972
    452       0.00000          28.611136          778.54863

  What follows are estimated values for band gap, HOMO, LUMO, etc.
  | They are estimated on a discrete k-point grid and not necessarily exact.
  | For converged numbers, create a DOS and/or band structure plot on a denser k-grid.

  Highest occupied state (VBM) at     -9.30651064 eV (relative to internal zero)
  | Occupation number:      2.00000000
  | K-point:       1 at    0.000000    0.000000    0.000000 (in units of recip. lattice)

  Lowest unoccupied state (CBM) at    -4.68579597 eV (relative to internal zero)
  | Occupation number:      0.00000000
  | K-point:      20 at    0.142857    0.000000    0.600000 (in units of recip. lattice)

  The gap value is above 0.2 eV. Unless you are using a very sparse k-point grid,
  this system is most likely an insulator or a semiconductor.
  ESTIMATED overall HOMO-LUMO gap:      4.62071466 eV between HOMO at k-point 1 and LUMO at k-point 20
  | This appears to be an indirect band gap.
  | Smallest direct gap :      4.67721178 eV for k_point 20 at    0.142857    0.000000    0.600000 (in units of recip. lattice)
  Calculating total energy contributions from superposition of free atom densities.

  Total energy components:
  | Sum of eigenvalues            :        -973.80764887 Ha      -26498.65436248 eV
  | XC energy correction          :        -148.00040741 Ha       -4027.29599232 eV
  | XC potential correction       :         190.78664729 Ha        5191.56881683 eV
  | Free-atom electrostatic energy:        -796.35260705 Ha      -21669.85698811 eV
  | Hartree energy correction     :           0.00000000 Ha           0.00000000 eV
  | vdW energy correction         :           0.00000000 Ha           0.00000000 eV
  | Entropy correction            :           0.00000000 Ha           0.00000000 eV
  | ---------------------------
  | Total energy                  :       -1727.37401605 Ha      -47004.23852608 eV
  | Total energy, T -> 0          :       -1727.37401605 Ha      -47004.23852608 eV  <-- do not rely on this value for anything but (periodic) metals
  | Electronic free energy        :       -1727.37401605 Ha      -47004.23852608 eV

  Derived energy quantities:
  | Kinetic energy                :        1729.61557145 Ha       47065.23435185 eV
  | Electrostatic energy          :       -3308.98918008 Ha      -90042.17688560 eV
  | Energy correction for multipole
  | error in Hartree potential    :           0.00000000 Ha           0.00000000 eV
  | Sum of eigenvalues per atom                           :       -2208.22119687 eV
  | Total energy (T->0) per atom                          :       -3917.01987717 eV  <-- do not rely on this value for anything but (periodic) metals
  | Electronic free energy per atom                       :       -3917.01987717 eV
  Initialize hartree_potential_storage
  Max. number of atoms included in rho_multipole:           12

  End scf initialization - timings             :  max(cpu_time)    wall_clock(cpu1)
  | Time for scf. initialization                :        8.323 s           8.377 s
  | Boundary condition initialization           :        0.073 s           0.072 s
  | Integration                                 :        6.370 s           6.412 s
  | Solution of K.-S. eqns.                     :        0.801 s           0.807 s
  | Grid partitioning                           :        0.175 s           0.176 s
  | Preloading free-atom quantities on grid     :        0.879 s           0.885 s
  | Free-atom superposition energy              :        0.074 s           0.074 s
  | Total energy evaluation                     :        0.001 s           0.002 s

  Partial memory accounting:
  | Current value for overall tracked memory usage:
  |   Minimum:       56.031 MB (on task  0)
  |   Maximum:       59.148 MB (on task  1)
  |   Average:       57.330 MB
  | Peak value for overall tracked memory usage:
  |   Minimum:       82.241 MB (on task 20 after allocating wave)
  |   Maximum:       86.536 MB (on task  8 after allocating wave)
  |   Average:       84.009 MB
  | Largest tracked array allocation so far:
  |   Minimum:       21.380 MB (hamiltonian_shell on task  5)
  |   Maximum:       22.834 MB (hamiltonian_shell on task  8)
  |   Average:       22.191 MB
  Note:  These values currently only include a subset of arrays which are explicitly tracked.
  The "true" memory usage will be greater.
------------------------------------------------------------
  Available memory after initialize_scf [GB]:    737.87
  Available memory after allocating mixing [GB]:    737.87
  Evaluating new KS density using the density matrix
  Evaluating density matrix
  Time summed over all CPUs for getting density from density matrix: real work      141.381 s, elapsed      161.760 s
  Integration grid: deviation in total charge (<rho> - N_e) =   5.684342E-14

  Time for density update prior                :  max(cpu_time)    wall_clock(cpu1)
  | self-consistency iterative process          :        6.781 s           6.827 s
  Available memory before start of SCF loop [GB]:    736.21

------------------------------------------------------------
          Begin self-consistency iteration #    1

  Date     :  20251113, Time     :  171136.156
------------------------------------------------------------
  Pulay mixing of updated and previous charge densities.
  Available memory per node after mixing [GB]:    736.21
  Renormalizing the density to the exact electron count on the 3D integration grid.
  | Formal number of electrons (from input files) :     118.0000000000
  | Integrated number of electrons on 3D grid     :     118.0000000000
  | Charge integration error                      :       0.0000000000
  | Normalization factor for density and gradient :       1.0000000000

  Evaluating partitioned Hartree potential by multipole expansion.
  | Original multipole sum: apparent total charge =   0.726371E-13
  | Sum of charges compensated after spline to logarithmic grids =  -0.378965E-07
  | Analytical far-field extrapolation by fixed multipoles:
  | Hartree multipole sum: apparent total charge =   0.754413E-13
  Summing up the Hartree potential.
  Time summed over all CPUs for potential: real work        0.215 s, elapsed        0.220 s
  | RMS charge density error from multipole expansion :   0.694419E-02
  | Average real-space part of the electrostatic potential :      0.40717086 eV

  Integrating Hamiltonian matrix: batch-based integration.
  Time summed over all CPUs for integration: real work       77.241 s, elapsed       86.240 s

  Updating Kohn-Sham eigenvalues and eigenvectors using ELSI and the (modified) LAPACK eigensolver.
  Starting LAPACK eigensolver
  Finished Cholesky decomposition
  | Time :     0.011 s
  Finished transformation to standard eigenproblem
  | Time :     0.014 s
  Finished solving standard eigenproblem
  | Time :     0.077 s
  Finished back-transformation of eigenvectors
  | Time :     0.011 s

  Obtaining occupation numbers and electronic chemical potential using ELSI.
  | Note that, for insulating systems, the printed 'chemical potential' value is not uniquely defined.
  | It can be anywhere in the energy gap, as long as it correctly separates occupied and unoccupied states.
  | In systems with a gap, the physically relevant chemical potential is the VBM or HOMO.

  | Chemical potential (Fermi level):    -6.86279349 eV
  Writing Kohn-Sham eigenvalues.
  K-point:       1 at    0.000000    0.000000    0.000000 (in units of recip. lattice)

  State    Occupation    Eigenvalue [Ha]    Eigenvalue [eV]
      1       2.00000         -88.951923        -2420.50498
      2       2.00000         -88.951923        -2420.50498
      3       2.00000         -38.040117        -1035.12424
      4       2.00000         -38.040117        -1035.12424
      5       2.00000         -18.976943         -516.38891
      6       2.00000         -18.976941         -516.38884
      7       2.00000         -18.785974         -511.19236
      8       2.00000         -18.785974         -511.19236
      9       2.00000         -18.785776         -511.18698
     10       2.00000         -18.785776         -511.18697
     11       2.00000         -18.784504         -511.15235
     12       2.00000         -18.784504         -511.15235
     13       2.00000          -8.014069         -218.07392
     14       2.00000          -8.014069         -218.07392
     15       2.00000          -5.988025         -162.94244
     16       2.00000          -5.988025         -162.94244
     17       2.00000          -5.987649         -162.93222
     18       2.00000          -5.987649         -162.93222
     19       2.00000          -5.987403         -162.92552
     20       2.00000          -5.987403         -162.92552
     21       2.00000          -2.085052          -56.73716
     22       2.00000          -2.085013          -56.73608
     23       2.00000          -1.191872          -32.43248
     24       2.00000          -1.155538          -31.44378
     25       2.00000          -1.096924          -29.84882
     26       2.00000          -1.055430          -28.71971
     27       2.00000          -1.055406          -28.71906
     28       2.00000          -1.055021          -28.70857
     29       2.00000          -1.054390          -28.69142
     30       2.00000          -1.053799          -28.67532
     31       2.00000          -1.052837          -28.64916
     32       2.00000          -1.007404          -27.41284
     33       2.00000          -1.006201          -27.38012
     34       2.00000          -1.002887          -27.28993
     35       2.00000          -1.002442          -27.27783
     36       2.00000          -0.955504          -26.00057
     37       2.00000          -0.673561          -18.32852
     38       2.00000          -0.636158          -17.31074
     39       2.00000          -0.588142          -16.00415
     40       2.00000          -0.564514          -15.36121
     41       2.00000          -0.525958          -14.31205
     42       2.00000          -0.525337          -14.29514
     43       2.00000          -0.520144          -14.15384
     44       2.00000          -0.504025          -13.71522
     45       2.00000          -0.480021          -13.06204
     46       2.00000          -0.477621          -12.99673
     47       2.00000          -0.416188          -11.32505
     48       2.00000          -0.415803          -11.31458
     49       2.00000          -0.404147          -10.99741
     50       2.00000          -0.398826          -10.85262
     51       2.00000          -0.396534          -10.79024
     52       2.00000          -0.393067          -10.69589
     53       2.00000          -0.388685          -10.57665
     54       2.00000          -0.362038           -9.85155
     55       2.00000          -0.358411           -9.75285
     56       2.00000          -0.346424           -9.42668
     57       2.00000          -0.330598           -8.99602
     58       2.00000          -0.321779           -8.75606
     59       2.00000          -0.318202           -8.65873
     60       0.00000          -0.189352           -5.15252
     61       0.00000          -0.120308           -3.27375
     62       0.00000          -0.056092           -1.52634
     63       0.00000          -0.047813           -1.30106
     64       0.00000          -0.015945           -0.43389
     65       0.00000           0.006273            0.17070
     66       0.00000           0.021425            0.58301
     67       0.00000           0.034585            0.94112
     68       0.00000           0.045277            1.23204
     69       0.00000           0.059215            1.61133
     70       0.00000           0.060587            1.64866
     71       0.00000           0.118541            3.22567
     72       0.00000           0.120750            3.28577
     73       0.00000           0.156110            4.24797
     74       0.00000           0.159310            4.33505
     75       0.00000           0.159763            4.34737
     76       0.00000           0.164041            4.46378
     77       0.00000           0.186282            5.06899
     78       0.00000           0.186446            5.07346
     79       0.00000           0.195548            5.32113
     80       0.00000           0.220467            5.99921
     81       0.00000           0.262481            7.14248
     82       0.00000           0.277327            7.54644
     83       0.00000           0.290827            7.91381
     84       0.00000           0.293750            7.99333
     85       0.00000           0.304991            8.29923
     86       0.00000           0.323967            8.81560
     87       0.00000           0.334862            9.11207
     88       0.00000           0.360501            9.80973
     89       0.00000           0.368160           10.01814
     90       0.00000           0.376383           10.24190
     91       0.00000           0.400979           10.91120
     92       0.00000           0.423883           11.53443
     93       0.00000           0.452285           12.30731
     94       0.00000           0.468992           12.76191
     95       0.00000           0.480417           13.07282
     96       0.00000           0.488392           13.28982
     97       0.00000           0.493822           13.43757
     98       0.00000           0.531677           14.46767
     99       0.00000           0.535032           14.55895
    100       0.00000           0.543142           14.77964
    101       0.00000           0.579478           15.76841
    102       0.00000           0.580617           15.79939
    103       0.00000           0.593699           16.15536
    104       0.00000           0.615595           16.75119
    105       0.00000           0.616823           16.78461
    106       0.00000           0.637387           17.34419
    107       0.00000           0.637771           17.35464
    108       0.00000           0.672680           18.30457
    109       0.00000           0.697561           18.98160
    110       0.00000           0.713841           19.42461
    111       0.00000           0.737472           20.06763
    112       0.00000           0.748204           20.35967
    113       0.00000           0.755750           20.56499
    114       0.00000           0.773149           21.03845
    115       0.00000           0.782392           21.28996
    116       0.00000           0.782529           21.29370
    117       0.00000           0.806511           21.94629
    118       0.00000           0.831436           22.62452
    119       0.00000           0.835463           22.73412
    120       0.00000           0.844183           22.97138
    121       0.00000           0.863787           23.50483
    122       0.00000           0.868068           23.62133
    123       0.00000           0.900903           24.51481
    124       0.00000           0.903541           24.58660
    125       0.00000           0.911909           24.81430
    126       0.00000           0.924658           25.16121
    127       0.00000           0.941158           25.61020
    128       0.00000           0.956716           26.03357
    129       0.00000           0.959236           26.10215
    130       0.00000           0.974131           26.50744
    131       0.00000           0.994399           27.05898
    132       0.00000           1.019289           27.73627
    133       0.00000           1.034624           28.15354
    134       0.00000           1.042535           28.36883
    135       0.00000           1.060135           28.84775
    136       0.00000           1.075153           29.25641
    137       0.00000           1.085171           29.52899
    138       0.00000           1.093696           29.76098
    139       0.00000           1.099639           29.92271
    140       0.00000           1.119632           30.46673
    141       0.00000           1.130573           30.76445
    142       0.00000           1.135116           30.88808
    143       0.00000           1.149907           31.29056
    144       0.00000           1.162864           31.64313
    145       0.00000           1.165384           31.71172
    146       0.00000           1.173834           31.94166
    147       0.00000           1.196559           32.56003
    148       0.00000           1.221740           33.24524
    149       0.00000           1.240621           33.75903
    150       0.00000           1.246625           33.92240
    151       0.00000           1.265376           34.43263
    152       0.00000           1.266941           34.47523
    153       0.00000           1.294684           35.23016
    154       0.00000           1.311742           35.69431
    155       0.00000           1.328086           36.13905
    156       0.00000           1.334145           36.30395
    157       0.00000           1.356860           36.92205
    158       0.00000           1.364106           37.11922
    159       0.00000           1.371968           37.33315
    160       0.00000           1.379014           37.52488
    161       0.00000           1.393877           37.92933
    162       0.00000           1.396593           38.00322
    163       0.00000           1.403572           38.19314
    164       0.00000           1.423328           38.73074
    165       0.00000           1.432931           38.99204
    166       0.00000           1.473140           40.08617
    167       0.00000           1.508867           41.05836
    168       0.00000           1.509901           41.08651
    169       0.00000           1.524491           41.48350
    170       0.00000           1.555510           42.32758
    171       0.00000           1.567349           42.64973
    172       0.00000           1.588370           43.22175
    173       0.00000           1.601457           43.57787
    174       0.00000           1.614767           43.94005
    175       0.00000           1.630482           44.36767
    176       0.00000           1.631854           44.40500
    177       0.00000           1.656193           45.06729
    178       0.00000           1.675186           45.58412
    179       0.00000           1.688814           45.95497
    180       0.00000           1.693277           46.07640
    181       0.00000           1.713702           46.63221
    182       0.00000           1.716429           46.70641
    183       0.00000           1.732294           47.13811
    184       0.00000           1.777910           48.37940
    185       0.00000           1.778622           48.39878
    186       0.00000           1.783592           48.53402
    187       0.00000           1.788613           48.67063
    188       0.00000           1.794314           48.82578
    189       0.00000           1.813507           49.34803
    190       0.00000           1.853312           50.43119
    191       0.00000           1.856469           50.51709
    192       0.00000           1.864823           50.74443
    193       0.00000           1.869748           50.87844
    194       0.00000           1.905527           51.85204
    195       0.00000           1.912207           52.03379
    196       0.00000           1.932546           52.58725
    197       0.00000           1.977912           53.82172
    198       0.00000           1.978460           53.83664
    199       0.00000           1.993067           54.23411
    200       0.00000           2.002158           54.48150
    201       0.00000           2.009942           54.69330
    202       0.00000           2.039872           55.50774
    203       0.00000           2.067573           56.26154
    204       0.00000           2.084219           56.71450
    205       0.00000           2.089509           56.85843
    206       0.00000           2.132884           58.03873
    207       0.00000           2.142502           58.30044
    208       0.00000           2.162280           58.83864
    209       0.00000           2.179952           59.31952
    210       0.00000           2.206127           60.03176
    211       0.00000           2.217368           60.33765
    212       0.00000           2.233761           60.78372
    213       0.00000           2.290579           62.32983
    214       0.00000           2.309830           62.85366
    215       0.00000           2.319391           63.11383
    216       0.00000           2.320898           63.15485
    217       0.00000           2.337620           63.60989
    218       0.00000           2.367534           64.42388
    219       0.00000           2.386545           64.94119
    220       0.00000           2.421953           65.90470
    221       0.00000           2.422442           65.91800
    222       0.00000           2.423889           65.95736
    223       0.00000           2.464411           67.06005
    224       0.00000           2.487436           67.68659
    225       0.00000           2.511873           68.35154
    226       0.00000           2.517295           68.49909
    227       0.00000           2.538793           69.08407
    228       0.00000           2.566793           69.84600
    229       0.00000           2.610772           71.04272
    230       0.00000           2.612636           71.09345
    231       0.00000           2.643865           71.94323
    232       0.00000           2.657278           72.30822
    233       0.00000           2.669016           72.62763
    234       0.00000           2.699059           73.44514
    235       0.00000           2.709072           73.71760
    236       0.00000           2.721212           74.04795
    237       0.00000           2.757242           75.02838
    238       0.00000           2.806612           76.37180
    239       0.00000           2.842903           77.35932
    240       0.00000           2.864139           77.93719
    241       0.00000           2.872506           78.16487
    242       0.00000           2.902153           78.97160
    243       0.00000           2.938228           79.95326
    244       0.00000           2.947533           80.20645
    245       0.00000           2.951145           80.30475
    246       0.00000           2.953772           80.37622
    247       0.00000           2.983078           81.17369
    248       0.00000           2.994312           81.47938
    249       0.00000           3.012577           81.97638
    250       0.00000           3.052490           83.06248
    251       0.00000           3.056078           83.16011
    252       0.00000           3.084874           83.94370
    253       0.00000           3.123354           84.99080
    254       0.00000           3.158461           85.94610
    255       0.00000           3.161142           86.01905
    256       0.00000           3.174996           86.39604
    257       0.00000           3.205214           87.21831
    258       0.00000           3.239328           88.14659
    259       0.00000           3.244489           88.28705
    260       0.00000           3.258229           88.66093
    261       0.00000           3.322911           90.42101
    262       0.00000           3.323875           90.44723
    263       0.00000           3.343509           90.98150
    264       0.00000           3.365527           91.58064
    265       0.00000           3.375336           91.84757
    266       0.00000           3.380315           91.98304
    267       0.00000           3.426307           93.23456
    268       0.00000           3.442781           93.68283
    269       0.00000           3.444607           93.73253
    270       0.00000           3.463113           94.23609
    271       0.00000           3.497470           95.17101
    272       0.00000           3.546553           96.50662
    273       0.00000           3.548489           96.55931
    274       0.00000           3.559344           96.85468
    275       0.00000           3.601999           98.01537
    276       0.00000           3.607507           98.16527
    277       0.00000           3.614541           98.35667
    278       0.00000           3.637126           98.97125
    279       0.00000           3.646753           99.23321
    280       0.00000           3.678747          100.10381
    281       0.00000           3.720319          101.23503
    282       0.00000           3.749113          102.01856
    283       0.00000           3.755993          102.20578
    284       0.00000           3.776576          102.76587
    285       0.00000           3.783212          102.94644
    286       0.00000           3.797458          103.33408
    287       0.00000           3.824466          104.06902
    288       0.00000           3.836355          104.39254
    289       0.00000           3.849627          104.75369
    290       0.00000           3.856827          104.94961
    291       0.00000           3.860254          105.04284
    292       0.00000           3.909238          106.37579
    293       0.00000           3.917648          106.60462
    294       0.00000           3.948357          107.44026
    295       0.00000           3.956472          107.66108
    296       0.00000           3.990043          108.57459
    297       0.00000           4.014545          109.24132
    298       0.00000           4.036377          109.83540
    299       0.00000           4.047426          110.13607
    300       0.00000           4.059670          110.46925
    301       0.00000           4.066003          110.64157
    302       0.00000           4.090704          111.31372
    303       0.00000           4.093105          111.37906
    304       0.00000           4.126376          112.28440
    305       0.00000           4.141585          112.69826
    306       0.00000           4.167033          113.39074
    307       0.00000           4.168777          113.43819
    308       0.00000           4.217242          114.75700
    309       0.00000           4.236828          115.28996
    310       0.00000           4.240419          115.38767
    311       0.00000           4.278966          116.43660
    312       0.00000           4.287094          116.65775
    313       0.00000           4.331340          117.86175
    314       0.00000           4.336106          117.99146
    315       0.00000           4.342015          118.15225
    316       0.00000           4.362657          118.71393
    317       0.00000           4.364037          118.75148
    318       0.00000           4.426278          120.44516
    319       0.00000           4.455462          121.23929
    320       0.00000           4.465189          121.50396
    321       0.00000           4.472555          121.70442
    322       0.00000           4.519507          122.98205
    323       0.00000           4.537667          123.47620
    324       0.00000           4.546897          123.72736
    325       0.00000           4.563140          124.16935
    326       0.00000           4.594732          125.02902
    327       0.00000           4.605809          125.33044
    328       0.00000           4.613380          125.53646
    329       0.00000           4.706004          128.05688
    330       0.00000           4.708186          128.11625
    331       0.00000           4.713507          128.26105
    332       0.00000           4.740717          129.00146
    333       0.00000           4.744318          129.09947
    334       0.00000           4.760958          129.55226
    335       0.00000           4.790091          130.34500
    336       0.00000           4.837878          131.64536
    337       0.00000           4.867897          132.46222
    338       0.00000           4.889894          133.06079
    339       0.00000           4.906412          133.51027
    340       0.00000           4.939437          134.40891
    341       0.00000           4.943727          134.52567
    342       0.00000           4.990907          135.80950
    343       0.00000           5.033249          136.96167
    344       0.00000           5.055860          137.57696
    345       0.00000           5.072903          138.04071
    346       0.00000           5.086163          138.40155
    347       0.00000           5.133692          139.69487
    348       0.00000           5.149450          140.12365
    349       0.00000           5.188674          141.19101
    350       0.00000           5.214006          141.88032
    351       0.00000           5.214337          141.88933
    352       0.00000           5.242999          142.66927
    353       0.00000           5.249674          142.85091
    354       0.00000           5.276240          143.57380
    355       0.00000           5.282441          143.74253
    356       0.00000           5.294233          144.06341
    357       0.00000           5.316965          144.68199
    358       0.00000           5.325361          144.91045
    359       0.00000           5.340860          145.33219
    360       0.00000           5.353427          145.67417
    361       0.00000           5.369634          146.11519
    362       0.00000           5.397518          146.87393
    363       0.00000           5.406287          147.11255
    364       0.00000           5.424886          147.61867
    365       0.00000           5.438115          147.97864
    366       0.00000           5.458878          148.54364
    367       0.00000           5.507723          149.87278
    368       0.00000           5.521745          150.25433
    369       0.00000           5.529972          150.47819
    370       0.00000           5.549265          151.00318
    371       0.00000           5.574829          151.69880
    372       0.00000           5.584671          151.96663
    373       0.00000           5.596963          152.30110
    374       0.00000           5.619670          152.91900
    375       0.00000           5.623574          153.02525
    376       0.00000           5.635816          153.35837
    377       0.00000           5.667411          154.21811
    378       0.00000           5.694470          154.95441
    379       0.00000           5.701848          155.15517
    380       0.00000           5.729959          155.92012
    381       0.00000           5.738179          156.14379
    382       0.00000           5.783591          157.37953
    383       0.00000           5.800526          157.84034
    384       0.00000           5.853884          159.29228
    385       0.00000           5.893402          160.36762
    386       0.00000           5.899247          160.52667
    387       0.00000           5.954954          162.04253
    388       0.00000           5.972441          162.51838
    389       0.00000           5.997513          163.20064
    390       0.00000           6.006965          163.45783
    391       0.00000           6.025302          163.95682
    392       0.00000           6.027281          164.01065
    393       0.00000           6.058397          164.85737
    394       0.00000           6.086218          165.61441
    395       0.00000           6.106633          166.16993
    396       0.00000           6.129647          166.79618
    397       0.00000           6.209466          168.96818
    398       0.00000           6.215190          169.12391
    399       0.00000           6.229538          169.51435
    400       0.00000           6.263805          170.44681
    401       0.00000           6.315816          171.86211
    402       0.00000           6.325564          172.12736
    403       0.00000           6.333043          172.33087
    404       0.00000           6.361020          173.09216
    405       0.00000           6.376221          173.50580
    406       0.00000           6.429996          174.96910
    407       0.00000           6.443918          175.34793
    408       0.00000           6.468882          176.02723
    409       0.00000           6.538398          177.91887
    410       0.00000           6.568429          178.73604
    411       0.00000           6.586719          179.23375
    412       0.00000           6.586841          179.23705
    413       0.00000           6.653255          181.04427
    414       0.00000           6.660440          181.23979
    415       0.00000           6.675208          181.64164
    416       0.00000           6.777565          184.42692
    417       0.00000           6.827957          185.79815
    418       0.00000           6.842462          186.19287
    419       0.00000           6.850087          186.40035
    420       0.00000           6.931502          188.61576
    421       0.00000           6.980736          189.95548
    422       0.00000           7.042148          191.62660
    423       0.00000           7.043747          191.67010
    424       0.00000           7.054370          191.95917
    425       0.00000           7.132080          194.07377
    426       0.00000           7.164042          194.94350
    427       0.00000           7.230681          196.75685
    428       0.00000           7.281690          198.14488
    429       0.00000           7.284316          198.21632
    430       0.00000           7.339995          199.73142
    431       0.00000           7.443063          202.53605
    432       0.00000           7.444311          202.57000
    433       0.00000           7.589531          206.52166
    434       0.00000           7.611482          207.11895
    435       0.00000           7.716866          209.98662
    436       0.00000           7.773247          211.52082
    437       0.00000           7.882205          214.48572
    438       0.00000           8.111251          220.71837
    439       0.00000           8.422922          229.19937
    440       0.00000           8.769462          238.62921
    441       0.00000           8.957396          243.74314
    442       0.00000           9.751946          265.36394
    443       0.00000          12.299219          334.67877
    444       0.00000          13.979926          380.41315
    445       0.00000          22.440573          610.63905
    446       0.00000          25.753210          700.78049
    447       0.00000          26.435868          719.35656
    448       0.00000          26.519513          721.63268
    449       0.00000          27.374326          744.89330
    450       0.00000          27.702217          753.81569
    451       0.00000          27.949492          760.54438
    452       0.00000          28.638724          779.29934

  What follows are estimated values for band gap, HOMO, LUMO, etc.
  | They are estimated on a discrete k-point grid and not necessarily exact.
  | For converged numbers, create a DOS and/or band structure plot on a denser k-grid.

  Highest occupied state (VBM) at     -8.47452099 eV (relative to internal zero)
  | Occupation number:      2.00000000
  | K-point:      62 at    0.428571    0.000000    0.000000 (in units of recip. lattice)

  Lowest unoccupied state (CBM) at    -5.25106599 eV (relative to internal zero)
  | Occupation number:      0.00000000
  | K-point:      20 at    0.142857    0.000000    0.600000 (in units of recip. lattice)

  The gap value is above 0.2 eV. Unless you are using a very sparse k-point grid,
  this system is most likely an insulator or a semiconductor.
  ESTIMATED overall HOMO-LUMO gap:      3.22345500 eV between HOMO at k-point 62 and LUMO at k-point 20
  | This appears to be an indirect band gap.
  | Smallest direct gap :      3.29673208 eV for k_point 63 at    0.428571    0.000000    0.200000 (in units of recip. lattice)

  Total energy components:
  | Sum of eigenvalues            :        -971.73351632 Ha      -26442.21434422 eV
  | XC energy correction          :        -148.75458969 Ha       -4047.81833633 eV
  | XC potential correction       :         191.76156041 Ha        5218.09755270 eV
  | Free-atom electrostatic energy:        -796.35260705 Ha      -21669.85698811 eV
  | Hartree energy correction     :          -1.97332620 Ha         -53.69693786 eV
  | vdW energy correction         :           0.00000000 Ha           0.00000000 eV
  | Entropy correction            :           0.00000000 Ha           0.00000000 eV
  | ---------------------------
  | Total energy                  :       -1727.05247886 Ha      -46995.48905382 eV
  | Total energy, T -> 0          :       -1727.05247886 Ha      -46995.48905382 eV  <-- do not rely on this value for anything but (periodic) metals
  | Electronic free energy        :       -1727.05247886 Ha      -46995.48905382 eV

  Derived energy quantities:
  | Kinetic energy                :        1732.35724453 Ha       47139.83907230 eV
  | Electrostatic energy          :       -3310.65513369 Ha      -90087.50978979 eV
  | Energy correction for multipole
  | error in Hartree potential    :          -0.00939165 Ha          -0.25555989 eV
  | Sum of eigenvalues per atom                           :       -2203.51786202 eV
  | Total energy (T->0) per atom                          :       -3916.29075449 eV  <-- do not rely on this value for anything but (periodic) metals
  | Electronic free energy per atom                       :       -3916.29075449 eV
  Evaluating new KS density using the density matrix
  Evaluating density matrix
  Time summed over all CPUs for getting density from density matrix: real work      157.378 s, elapsed      174.621 s
  Integration grid: deviation in total charge (<rho> - N_e) =   5.684342E-14

  Self-consistency convergence accuracy:
  | Change of charge density      :  0.7971E+00
  | Change of unmixed KS density  :  0.5285E+02
  | Change of sum of eigenvalues  :  0.5644E+02 eV
  | Change of total energy        :  0.8749E+01 eV


------------------------------------------------------------
  End self-consistency iteration #     1       :  max(cpu_time)    wall_clock(cpu1)
  | Time for this iteration                     :       11.805 s          11.892 s
  | Charge density update                       :        7.312 s           7.365 s
  | Density mixing                              :        0.001 s           0.001 s
  | Hartree multipole update                    :        0.002 s           0.002 s
  | Hartree multipole summation                 :        0.223 s           0.225 s
  | Integration                                 :        3.598 s           3.622 s
  | Solution of K.-S. eqns.                     :        0.649 s           0.654 s
  | Total energy evaluation                     :        0.001 s           0.002 s

  Partial memory accounting:
  | Current value for overall tracked memory usage:
  |   Minimum:       61.845 MB (on task 22)
  |   Maximum:       64.995 MB (on task  9)
  |   Average:       63.164 MB
  | Peak value for overall tracked memory usage:
  |   Minimum:       92.447 MB (on task 20 after allocating gradient_basis_wave)
  |   Maximum:       96.849 MB (on task  8 after allocating gradient_basis_wave)
  |   Average:       94.255 MB
  | Largest tracked array allocation so far:
  |   Minimum:       21.380 MB (hamiltonian_shell on task  5)
  |   Maximum:       22.834 MB (hamiltonian_shell on task  8)
  |   Average:       22.191 MB
  Note:  These values currently only include a subset of arrays which are explicitly tracked.
  The "true" memory usage will be greater.
------------------------------------------------------------

------------------------------------------------------------
          Begin self-consistency iteration #    2

  Date     :  20251113, Time     :  171148.051
------------------------------------------------------------
  Pulay mixing of updated and previous charge densities.
  Available memory per node after mixing [GB]:    737.21
  Renormalizing the density to the exact electron count on the 3D integration grid.
  | Formal number of electrons (from input files) :     118.0000000000
  | Integrated number of electrons on 3D grid     :     118.0000000000
  | Charge integration error                      :       0.0000000000
  | Normalization factor for density and gradient :       1.0000000000

  Evaluating partitioned Hartree potential by multipole expansion.
  | Original multipole sum: apparent total charge =   0.135091E-12
  | Sum of charges compensated after spline to logarithmic grids =   0.503751E-06
  | Analytical far-field extrapolation by fixed multipoles:
  | Hartree multipole sum: apparent total charge =   0.133763E-12
  Summing up the Hartree potential.
  Time summed over all CPUs for potential: real work        0.213 s, elapsed        0.218 s
  | RMS charge density error from multipole expansion :   0.911212E-02
  | Average real-space part of the electrostatic potential :      0.43779886 eV

  Integrating Hamiltonian matrix: batch-based integration.
  Time summed over all CPUs for integration: real work       73.580 s, elapsed       83.006 s

  Updating Kohn-Sham eigenvalues and eigenvectors using ELSI and the (modified) LAPACK eigensolver.
  Starting LAPACK eigensolver
  Finished Cholesky decomposition
  | Time :     0.009 s
  Finished transformation to standard eigenproblem
  | Time :     0.013 s
  Finished solving standard eigenproblem
  | Time :     0.070 s
  Finished back-transformation of eigenvectors
  | Time :     0.011 s

  Obtaining occupation numbers and electronic chemical potential using ELSI.
  | Note that, for insulating systems, the printed 'chemical potential' value is not uniquely defined.
  | It can be anywhere in the energy gap, as long as it correctly separates occupied and unoccupied states.
  | In systems with a gap, the physically relevant chemical potential is the VBM or HOMO.

  | Chemical potential (Fermi level):    -6.46532541 eV
  What follows are estimated values for band gap, HOMO, LUMO, etc.
  | They are estimated on a discrete k-point grid and not necessarily exact.
  | For converged numbers, create a DOS and/or band structure plot on a denser k-grid.

  Highest occupied state (VBM) at     -8.44769401 eV (relative to internal zero)
  | Occupation number:      2.00000000
  | K-point:       1 at    0.000000    0.000000    0.000000 (in units of recip. lattice)

  Lowest unoccupied state (CBM) at    -4.48295681 eV (relative to internal zero)
  | Occupation number:      0.00000000
  | K-point:      20 at    0.142857    0.000000    0.600000 (in units of recip. lattice)

  The gap value is above 0.2 eV. Unless you are using a very sparse k-point grid,
  this system is most likely an insulator or a semiconductor.
  ESTIMATED overall HOMO-LUMO gap:      3.96473720 eV between HOMO at k-point 1 and LUMO at k-point 20
  | This appears to be an indirect band gap.
  | Smallest direct gap :      4.00713417 eV for k_point 3 at    0.000000    0.000000    0.400000 (in units of recip. lattice)

  Checking to see if s.c.f. parameters should be adjusted.
  Kept the default occupation width. Value:   0.010000 eV.

  Total energy components:
  | Sum of eigenvalues            :        -971.36653422 Ha      -26432.22825319 eV
  | XC energy correction          :        -148.69124495 Ha       -4046.09463810 eV
  | XC potential correction       :         191.67939486 Ha        5215.86171427 eV
  | Free-atom electrostatic energy:        -796.35260705 Ha      -21669.85698811 eV
  | Hartree energy correction     :          -2.29689974 Ha         -62.50182202 eV
  | vdW energy correction         :           0.00000000 Ha           0.00000000 eV
  | Entropy correction            :           0.00000000 Ha           0.00000000 eV
  | ---------------------------
  | Total energy                  :       -1727.02789111 Ha      -46994.81998715 eV
  | Total energy, T -> 0          :       -1727.02789111 Ha      -46994.81998715 eV  <-- do not rely on this value for anything but (periodic) metals
  | Electronic free energy        :       -1727.02789111 Ha      -46994.81998715 eV

  Derived energy quantities:
  | Kinetic energy                :        1730.99069099 Ha       47102.65325855 eV
  | Electrostatic energy          :       -3309.32733715 Ha      -90051.37860761 eV
  | Energy correction for multipole
  | error in Hartree potential    :          -0.01310063 Ha          -0.35648631 eV
  | Sum of eigenvalues per atom                           :       -2202.68568777 eV
  | Total energy (T->0) per atom                          :       -3916.23499893 eV  <-- do not rely on this value for anything but (periodic) metals
  | Electronic free energy per atom                       :       -3916.23499893 eV
  Evaluating new KS density using the density matrix
  Evaluating density matrix
  Time summed over all CPUs for getting density from density matrix: real work      141.650 s, elapsed      161.501 s
  Integration grid: deviation in total charge (<rho> - N_e) =   5.684342E-14

  Self-consistency convergence accuracy:
  | Change of charge density      :  0.3339E+00
  | Change of unmixed KS density  :  0.6332E+00
  | Change of sum of eigenvalues  :  0.9986E+01 eV
  | Change of total energy        :  0.6691E+00 eV


------------------------------------------------------------
  End self-consistency iteration #     2       :  max(cpu_time)    wall_clock(cpu1)
  | Time for this iteration                     :       11.047 s          11.123 s
  | Charge density update                       :        6.769 s           6.815 s
  | Density mixing                              :        0.007 s           0.006 s
  | Hartree multipole update                    :        0.002 s           0.003 s
  | Hartree multipole summation                 :        0.220 s           0.222 s
  | Integration                                 :        3.464 s           3.487 s
  | Solution of K.-S. eqns.                     :        0.583 s           0.587 s
  | Total energy evaluation                     :        0.001 s           0.002 s

  Partial memory accounting:
  | Current value for overall tracked memory usage:
  |   Minimum:       61.846 MB (on task 22)
  |   Maximum:       64.995 MB (on task  9)
  |   Average:       63.165 MB
  | Peak value for overall tracked memory usage:
  |   Minimum:       92.448 MB (on task 20 after allocating gradient_basis_wave)
  |   Maximum:       96.850 MB (on task  8 after allocating gradient_basis_wave)
  |   Average:       94.255 MB
  | Largest tracked array allocation so far:
  |   Minimum:       21.380 MB (hamiltonian_shell on task  5)
  |   Maximum:       22.834 MB (hamiltonian_shell on task  8)
  |   Average:       22.191 MB
  Note:  These values currently only include a subset of arrays which are explicitly tracked.
  The "true" memory usage will be greater.
------------------------------------------------------------

------------------------------------------------------------
          Begin self-consistency iteration #    3

  Date     :  20251113, Time     :  171159.177
------------------------------------------------------------
  Pulay mixing of updated and previous charge densities.
  Available memory per node after mixing [GB]:    737.22
  Renormalizing the density to the exact electron count on the 3D integration grid.
  | Formal number of electrons (from input files) :     118.0000000000
  | Integrated number of electrons on 3D grid     :     118.0000000000
  | Charge integration error                      :       0.0000000000
  | Normalization factor for density and gradient :       1.0000000000

  Evaluating partitioned Hartree potential by multipole expansion.
  | Original multipole sum: apparent total charge =   0.829682E-13
  | Sum of charges compensated after spline to logarithmic grids =   0.103925E-05
  | Analytical far-field extrapolation by fixed multipoles:
  | Hartree multipole sum: apparent total charge =   0.831404E-13
  Summing up the Hartree potential.
  Time summed over all CPUs for potential: real work        0.202 s, elapsed        0.206 s
  | RMS charge density error from multipole expansion :   0.127823E-01
  | Average real-space part of the electrostatic potential :      0.52273639 eV

  Integrating Hamiltonian matrix: batch-based integration.
  Time summed over all CPUs for integration: real work       72.084 s, elapsed       81.798 s

  Updating Kohn-Sham eigenvalues and eigenvectors using ELSI and the (modified) LAPACK eigensolver.
  Starting LAPACK eigensolver
  Finished Cholesky decomposition
  | Time :     0.009 s
  Finished transformation to standard eigenproblem
  | Time :     0.013 s
  Finished solving standard eigenproblem
  | Time :     0.069 s
  Finished back-transformation of eigenvectors
  | Time :     0.010 s

  Obtaining occupation numbers and electronic chemical potential using ELSI.
  | Note that, for insulating systems, the printed 'chemical potential' value is not uniquely defined.
  | It can be anywhere in the energy gap, as long as it correctly separates occupied and unoccupied states.
  | In systems with a gap, the physically relevant chemical potential is the VBM or HOMO.

  | Chemical potential (Fermi level):    -6.76138035 eV
  What follows are estimated values for band gap, HOMO, LUMO, etc.
  | They are estimated on a discrete k-point grid and not necessarily exact.
  | For converged numbers, create a DOS and/or band structure plot on a denser k-grid.

  Highest occupied state (VBM) at     -8.58106152 eV (relative to internal zero)
  | Occupation number:      2.00000000
  | K-point:      63 at    0.428571    0.000000    0.200000 (in units of recip. lattice)

  Lowest unoccupied state (CBM) at    -4.94169918 eV (relative to internal zero)
  | Occupation number:      0.00000000
  | K-point:      20 at    0.142857    0.000000    0.600000 (in units of recip. lattice)

  The gap value is above 0.2 eV. Unless you are using a very sparse k-point grid,
  this system is most likely an insulator or a semiconductor.
  ESTIMATED overall HOMO-LUMO gap:      3.63936235 eV between HOMO at k-point 63 and LUMO at k-point 20
  | This appears to be an indirect band gap.
  | Smallest direct gap :      3.66562580 eV for k_point 3 at    0.000000    0.000000    0.400000 (in units of recip. lattice)

  Total energy components:
  | Sum of eigenvalues            :        -971.36401188 Ha      -26432.15961664 eV
  | XC energy correction          :        -148.72288830 Ha       -4046.95569748 eV
  | XC potential correction       :         191.71894761 Ha        5216.93799939 eV
  | Free-atom electrostatic energy:        -796.35260705 Ha      -21669.85698811 eV
  | Hartree energy correction     :          -2.30580559 Ha         -62.74416240 eV
  | vdW energy correction         :           0.00000000 Ha           0.00000000 eV
  | Entropy correction            :           0.00000000 Ha           0.00000000 eV
  | ---------------------------
  | Total energy                  :       -1727.02636520 Ha      -46994.77846523 eV
  | Total energy, T -> 0          :       -1727.02636520 Ha      -46994.77846523 eV  <-- do not rely on this value for anything but (periodic) metals
  | Electronic free energy        :       -1727.02636520 Ha      -46994.77846523 eV

  Derived energy quantities:
  | Kinetic energy                :        1729.51991015 Ha       47062.63127559 eV
  | Electrostatic energy          :       -3307.82338706 Ha      -90010.45404334 eV
  | Energy correction for multipole
  | error in Hartree potential    :          -0.01842808 Ha          -0.50145363 eV
  | Sum of eigenvalues per atom                           :       -2202.67996805 eV
  | Total energy (T->0) per atom                          :       -3916.23153877 eV  <-- do not rely on this value for anything but (periodic) metals
  | Electronic free energy per atom                       :       -3916.23153877 eV
  Evaluating new KS density using the density matrix
  Evaluating density matrix
  Time summed over all CPUs for getting density from density matrix: real work      141.769 s, elapsed      161.747 s
  Integration grid: deviation in total charge (<rho> - N_e) =   8.526513E-14

  Self-consistency convergence accuracy:
  | Change of charge density      :  0.1599E+00
  | Change of unmixed KS density  :  0.1621E+00
  | Change of sum of eigenvalues  :  0.6864E-01 eV
  | Change of total energy        :  0.4152E-01 eV


------------------------------------------------------------
  End self-consistency iteration #     3       :  max(cpu_time)    wall_clock(cpu1)
  | Time for this iteration                     :       10.988 s          11.066 s
  | Charge density update                       :        6.778 s           6.824 s
  | Density mixing                              :        0.006 s           0.006 s
  | Hartree multipole update                    :        0.002 s           0.002 s
  | Hartree multipole summation                 :        0.209 s           0.211 s
  | Integration                                 :        3.413 s           3.436 s
  | Solution of K.-S. eqns.                     :        0.579 s           0.583 s
  | Total energy evaluation                     :        0.001 s           0.002 s

  Partial memory accounting:
  | Current value for overall tracked memory usage:
  |   Minimum:       61.846 MB (on task 22)
  |   Maximum:       64.995 MB (on task  9)
  |   Average:       63.165 MB
  | Peak value for overall tracked memory usage:
  |   Minimum:       92.448 MB (on task 20 after allocating gradient_basis_wave)
  |   Maximum:       96.850 MB (on task  8 after allocating gradient_basis_wave)
  |   Average:       94.255 MB
  | Largest tracked array allocation so far:
  |   Minimum:       21.380 MB (hamiltonian_shell on task  5)
  |   Maximum:       22.834 MB (hamiltonian_shell on task  8)
  |   Average:       22.191 MB
  Note:  These values currently only include a subset of arrays which are explicitly tracked.
  The "true" memory usage will be greater.
------------------------------------------------------------

------------------------------------------------------------
          Begin self-consistency iteration #    4

  Date     :  20251113, Time     :  171210.245
------------------------------------------------------------
  Pulay mixing of updated and previous charge densities.
  Available memory per node after mixing [GB]:    737.20
  Renormalizing the density to the exact electron count on the 3D integration grid.
  | Formal number of electrons (from input files) :     118.0000000000
  | Integrated number of electrons on 3D grid     :     118.0000000000
  | Charge integration error                      :       0.0000000000
  | Normalization factor for density and gradient :       1.0000000000

  Evaluating partitioned Hartree potential by multipole expansion.
  | Original multipole sum: apparent total charge =   0.772369E-13
  | Sum of charges compensated after spline to logarithmic grids =   0.125211E-05
  | Analytical far-field extrapolation by fixed multipoles:
  | Hartree multipole sum: apparent total charge =   0.785160E-13
  Summing up the Hartree potential.
  Time summed over all CPUs for potential: real work        0.204 s, elapsed        0.208 s
  | RMS charge density error from multipole expansion :   0.143313E-01
  | Average real-space part of the electrostatic potential :      0.55527382 eV

  Integrating Hamiltonian matrix: batch-based integration.
  Time summed over all CPUs for integration: real work       72.353 s, elapsed       81.956 s

  Updating Kohn-Sham eigenvalues and eigenvectors using ELSI and the (modified) LAPACK eigensolver.
  Starting LAPACK eigensolver
  Finished Cholesky decomposition
  | Time :     0.009 s
  Finished transformation to standard eigenproblem
  | Time :     0.013 s
  Finished solving standard eigenproblem
  | Time :     0.068 s
  Finished back-transformation of eigenvectors
  | Time :     0.010 s

  Obtaining occupation numbers and electronic chemical potential using ELSI.
  | Note that, for insulating systems, the printed 'chemical potential' value is not uniquely defined.
  | It can be anywhere in the energy gap, as long as it correctly separates occupied and unoccupied states.
  | In systems with a gap, the physically relevant chemical potential is the VBM or HOMO.

  | Chemical potential (Fermi level):    -6.54189181 eV
  What follows are estimated values for band gap, HOMO, LUMO, etc.
  | They are estimated on a discrete k-point grid and not necessarily exact.
  | For converged numbers, create a DOS and/or band structure plot on a denser k-grid.

  Highest occupied state (VBM) at     -8.39000197 eV (relative to internal zero)
  | Occupation number:      2.00000000
  | K-point:       1 at    0.000000    0.000000    0.000000 (in units of recip. lattice)

  Lowest unoccupied state (CBM) at    -4.69378164 eV (relative to internal zero)
  | Occupation number:      0.00000000
  | K-point:      20 at    0.142857    0.000000    0.600000 (in units of recip. lattice)

  The gap value is above 0.2 eV. Unless you are using a very sparse k-point grid,
  this system is most likely an insulator or a semiconductor.
  ESTIMATED overall HOMO-LUMO gap:      3.69622033 eV between HOMO at k-point 1 and LUMO at k-point 20
  | This appears to be an indirect band gap.
  | Smallest direct gap :      3.71983444 eV for k_point 3 at    0.000000    0.000000    0.400000 (in units of recip. lattice)

  Total energy components:
  | Sum of eigenvalues            :        -971.38018175 Ha      -26432.59962131 eV
  | XC energy correction          :        -148.73089577 Ha       -4047.17359170 eV
  | XC potential correction       :         191.72857055 Ha        5217.19985292 eV
  | Free-atom electrostatic energy:        -796.35260705 Ha      -21669.85698811 eV
  | Hartree energy correction     :          -2.29008259 Ha         -62.31631795 eV
  | vdW energy correction         :           0.00000000 Ha           0.00000000 eV
  | Entropy correction            :           0.00000000 Ha           0.00000000 eV
  | ---------------------------
  | Total energy                  :       -1727.02519661 Ha      -46994.74666615 eV
  | Total energy, T -> 0          :       -1727.02519661 Ha      -46994.74666615 eV  <-- do not rely on this value for anything but (periodic) metals
  | Electronic free energy        :       -1727.02519661 Ha      -46994.74666615 eV

  Derived energy quantities:
  | Kinetic energy                :        1728.89259332 Ha       47045.56111608 eV
  | Electrostatic energy          :       -3307.18689417 Ha      -89993.13419053 eV
  | Energy correction for multipole
  | error in Hartree potential    :          -0.02072624 Ha          -0.56398971 eV
  | Sum of eigenvalues per atom                           :       -2202.71663511 eV
  | Total energy (T->0) per atom                          :       -3916.22888885 eV  <-- do not rely on this value for anything but (periodic) metals
  | Electronic free energy per atom                       :       -3916.22888885 eV
  Evaluating new KS density using the density matrix
  Evaluating density matrix
  Time summed over all CPUs for getting density from density matrix: real work      141.789 s, elapsed      161.738 s
  Integration grid: deviation in total charge (<rho> - N_e) =   4.263256E-14

  Self-consistency convergence accuracy:
  | Change of charge density      :  0.7107E-01
  | Change of unmixed KS density  :  0.6042E-01
  | Change of sum of eigenvalues  : -0.4400E+00 eV
  | Change of total energy        :  0.3180E-01 eV


------------------------------------------------------------
  End self-consistency iteration #     4       :  max(cpu_time)    wall_clock(cpu1)
  | Time for this iteration                     :       11.001 s          11.076 s
  | Charge density update                       :        6.779 s           6.825 s
  | Density mixing                              :        0.007 s           0.006 s
  | Hartree multipole update                    :        0.002 s           0.003 s
  | Hartree multipole summation                 :        0.211 s           0.212 s
  | Integration                                 :        3.420 s           3.443 s
  | Solution of K.-S. eqns.                     :        0.579 s           0.584 s
  | Total energy evaluation                     :        0.001 s           0.002 s

  Partial memory accounting:
  | Current value for overall tracked memory usage:
  |   Minimum:       61.846 MB (on task 22)
  |   Maximum:       64.995 MB (on task  9)
  |   Average:       63.165 MB
  | Peak value for overall tracked memory usage:
  |   Minimum:       92.448 MB (on task 20 after allocating gradient_basis_wave)
  |   Maximum:       96.850 MB (on task  8 after allocating gradient_basis_wave)
  |   Average:       94.255 MB
  | Largest tracked array allocation so far:
  |   Minimum:       21.380 MB (hamiltonian_shell on task  5)
  |   Maximum:       22.834 MB (hamiltonian_shell on task  8)
  |   Average:       22.191 MB
  Note:  These values currently only include a subset of arrays which are explicitly tracked.
  The "true" memory usage will be greater.
------------------------------------------------------------

------------------------------------------------------------
          Begin self-consistency iteration #    5

  Date     :  20251113, Time     :  171221.326
------------------------------------------------------------
  Pulay mixing of updated and previous charge densities.
  Available memory per node after mixing [GB]:    737.20
  Renormalizing the density to the exact electron count on the 3D integration grid.
  | Formal number of electrons (from input files) :     118.0000000000
  | Integrated number of electrons on 3D grid     :     118.0000000000
  | Charge integration error                      :      -0.0000000000
  | Normalization factor for density and gradient :       1.0000000000

  Evaluating partitioned Hartree potential by multipole expansion.
  | Original multipole sum: apparent total charge =   0.434888E-13
  | Sum of charges compensated after spline to logarithmic grids =   0.124967E-05
  | Analytical far-field extrapolation by fixed multipoles:
  | Hartree multipole sum: apparent total charge =   0.435872E-13
  Summing up the Hartree potential.
  Time summed over all CPUs for potential: real work        0.204 s, elapsed        0.208 s
  | RMS charge density error from multipole expansion :   0.144297E-01
  | Average real-space part of the electrostatic potential :      0.55581997 eV

  Integrating Hamiltonian matrix: batch-based integration.
  Time summed over all CPUs for integration: real work       72.274 s, elapsed       82.133 s

  Updating Kohn-Sham eigenvalues and eigenvectors using ELSI and the (modified) LAPACK eigensolver.
  Starting LAPACK eigensolver
  Finished Cholesky decomposition
  | Time :     0.009 s
  Finished transformation to standard eigenproblem
  | Time :     0.013 s
  Finished solving standard eigenproblem
  | Time :     0.068 s
  Finished back-transformation of eigenvectors
  | Time :     0.010 s

  Obtaining occupation numbers and electronic chemical potential using ELSI.
  | Note that, for insulating systems, the printed 'chemical potential' value is not uniquely defined.
  | It can be anywhere in the energy gap, as long as it correctly separates occupied and unoccupied states.
  | In systems with a gap, the physically relevant chemical potential is the VBM or HOMO.

  | Chemical potential (Fermi level):    -6.54118469 eV
  What follows are estimated values for band gap, HOMO, LUMO, etc.
  | They are estimated on a discrete k-point grid and not necessarily exact.
  | For converged numbers, create a DOS and/or band structure plot on a denser k-grid.

  Highest occupied state (VBM) at     -8.40004125 eV (relative to internal zero)
  | Occupation number:      2.00000000
  | K-point:       1 at    0.000000    0.000000    0.000000 (in units of recip. lattice)

  Lowest unoccupied state (CBM) at    -4.68232812 eV (relative to internal zero)
  | Occupation number:      0.00000000
  | K-point:      20 at    0.142857    0.000000    0.600000 (in units of recip. lattice)

  The gap value is above 0.2 eV. Unless you are using a very sparse k-point grid,
  this system is most likely an insulator or a semiconductor.
  ESTIMATED overall HOMO-LUMO gap:      3.71771313 eV between HOMO at k-point 1 and LUMO at k-point 20
  | This appears to be an indirect band gap.
  | Smallest direct gap :      3.74414348 eV for k_point 3 at    0.000000    0.000000    0.400000 (in units of recip. lattice)

  Total energy components:
  | Sum of eigenvalues            :        -971.39035545 Ha      -26432.87646176 eV
  | XC energy correction          :        -148.72776472 Ha       -4047.08839171 eV
  | XC potential correction       :         191.72445106 Ha        5217.08775583 eV
  | Free-atom electrostatic energy:        -796.35260705 Ha      -21669.85698811 eV
  | Hartree energy correction     :          -2.27888354 Ha         -62.01157619 eV
  | vdW energy correction         :           0.00000000 Ha           0.00000000 eV
  | Entropy correction            :           0.00000000 Ha           0.00000000 eV
  | ---------------------------
  | Total energy                  :       -1727.02515971 Ha      -46994.74566194 eV
  | Total energy, T -> 0          :       -1727.02515971 Ha      -46994.74566194 eV  <-- do not rely on this value for anything but (periodic) metals
  | Electronic free energy        :       -1727.02515971 Ha      -46994.74566194 eV

  Derived energy quantities:
  | Kinetic energy                :        1728.87750208 Ha       47045.15046243 eV
  | Electrostatic energy          :       -3307.17489706 Ha      -89992.80773265 eV
  | Energy correction for multipole
  | error in Hartree potential    :          -0.02087573 Ha          -0.56805755 eV
  | Sum of eigenvalues per atom                           :       -2202.73970515 eV
  | Total energy (T->0) per atom                          :       -3916.22880516 eV  <-- do not rely on this value for anything but (periodic) metals
  | Electronic free energy per atom                       :       -3916.22880516 eV
  Evaluating new KS density using the density matrix
  Evaluating density matrix
  Time summed over all CPUs for getting density from density matrix: real work      143.557 s, elapsed      164.117 s
  Integration grid: deviation in total charge (<rho> - N_e) =   2.842171E-14

  Self-consistency convergence accuracy:
  | Change of charge density      :  0.1120E-01
  | Change of unmixed KS density  :  0.3574E-01
  | Change of sum of eigenvalues  : -0.2768E+00 eV
  | Change of total energy        :  0.1004E-02 eV


------------------------------------------------------------
  End self-consistency iteration #     5       :  max(cpu_time)    wall_clock(cpu1)
  | Time for this iteration                     :       11.103 s          11.181 s
  | Charge density update                       :        6.875 s           6.924 s
  | Density mixing                              :        0.007 s           0.005 s
  | Hartree multipole update                    :        0.002 s           0.003 s
  | Hartree multipole summation                 :        0.211 s           0.212 s
  | Integration                                 :        3.427 s           3.450 s
  | Solution of K.-S. eqns.                     :        0.579 s           0.584 s
  | Total energy evaluation                     :        0.001 s           0.002 s

  Partial memory accounting:
  | Current value for overall tracked memory usage:
  |   Minimum:       61.846 MB (on task 22)
  |   Maximum:       64.995 MB (on task  9)
  |   Average:       63.165 MB
  | Peak value for overall tracked memory usage:
  |   Minimum:       92.448 MB (on task 20 after allocating gradient_basis_wave)
  |   Maximum:       96.850 MB (on task  8 after allocating gradient_basis_wave)
  |   Average:       94.255 MB
  | Largest tracked array allocation so far:
  |   Minimum:       21.380 MB (hamiltonian_shell on task  5)
  |   Maximum:       22.834 MB (hamiltonian_shell on task  8)
  |   Average:       22.191 MB
  Note:  These values currently only include a subset of arrays which are explicitly tracked.
  The "true" memory usage will be greater.
------------------------------------------------------------

------------------------------------------------------------
          Begin self-consistency iteration #    6

  Date     :  20251113, Time     :  171232.510
------------------------------------------------------------
  Pulay mixing of updated and previous charge densities.
  Available memory per node after mixing [GB]:    736.17
  Renormalizing the density to the exact electron count on the 3D integration grid.
  | Formal number of electrons (from input files) :     118.0000000000
  | Integrated number of electrons on 3D grid     :     118.0000000000
  | Charge integration error                      :      -0.0000000000
  | Normalization factor for density and gradient :       1.0000000000

  Evaluating partitioned Hartree potential by multipole expansion.
  | Original multipole sum: apparent total charge =   0.219412E-13
  | Sum of charges compensated after spline to logarithmic grids =   0.124282E-05
  | Analytical far-field extrapolation by fixed multipoles:
  | Hartree multipole sum: apparent total charge =   0.218920E-13
  Summing up the Hartree potential.
  Time summed over all CPUs for potential: real work        0.230 s, elapsed        0.235 s
  | RMS charge density error from multipole expansion :   0.144909E-01
  | Average real-space part of the electrostatic potential :      0.55713127 eV

  Integrating Hamiltonian matrix: batch-based integration.
  Time summed over all CPUs for integration: real work       77.656 s, elapsed       86.255 s

  Updating Kohn-Sham eigenvalues and eigenvectors using ELSI and the (modified) LAPACK eigensolver.
  Starting LAPACK eigensolver
  Finished Cholesky decomposition
  | Time :     0.011 s
  Finished transformation to standard eigenproblem
  | Time :     0.015 s
  Finished solving standard eigenproblem
  | Time :     0.077 s
  Finished back-transformation of eigenvectors
  | Time :     0.011 s

  Obtaining occupation numbers and electronic chemical potential using ELSI.
  | Note that, for insulating systems, the printed 'chemical potential' value is not uniquely defined.
  | It can be anywhere in the energy gap, as long as it correctly separates occupied and unoccupied states.
  | In systems with a gap, the physically relevant chemical potential is the VBM or HOMO.

  | Chemical potential (Fermi level):    -6.54578473 eV
  What follows are estimated values for band gap, HOMO, LUMO, etc.
  | They are estimated on a discrete k-point grid and not necessarily exact.
  | For converged numbers, create a DOS and/or band structure plot on a denser k-grid.

  Highest occupied state (VBM) at     -8.40436965 eV (relative to internal zero)
  | Occupation number:      2.00000000
  | K-point:       1 at    0.000000    0.000000    0.000000 (in units of recip. lattice)

  Lowest unoccupied state (CBM) at    -4.68719981 eV (relative to internal zero)
  | Occupation number:      0.00000000
  | K-point:      20 at    0.142857    0.000000    0.600000 (in units of recip. lattice)

  The gap value is above 0.2 eV. Unless you are using a very sparse k-point grid,
  this system is most likely an insulator or a semiconductor.
  ESTIMATED overall HOMO-LUMO gap:      3.71716984 eV between HOMO at k-point 1 and LUMO at k-point 20
  | This appears to be an indirect band gap.
  | Smallest direct gap :      3.74234215 eV for k_point 3 at    0.000000    0.000000    0.400000 (in units of recip. lattice)

  Total energy components:
  | Sum of eigenvalues            :        -971.38689374 Ha      -26432.78226378 eV
  | XC energy correction          :        -148.72877688 Ha       -4047.11593394 eV
  | XC potential correction       :         191.72572714 Ha        5217.12247976 eV
  | Free-atom electrostatic energy:        -796.35260705 Ha      -21669.85698811 eV
  | Hartree energy correction     :          -2.28260534 Ha         -62.11285169 eV
  | vdW energy correction         :           0.00000000 Ha           0.00000000 eV
  | Entropy correction            :           0.00000000 Ha           0.00000000 eV
  | ---------------------------
  | Total energy                  :       -1727.02515588 Ha      -46994.74555775 eV
  | Total energy, T -> 0          :       -1727.02515588 Ha      -46994.74555775 eV  <-- do not rely on this value for anything but (periodic) metals
  | Electronic free energy        :       -1727.02515588 Ha      -46994.74555775 eV

  Derived energy quantities:
  | Kinetic energy                :        1728.89236625 Ha       47045.55493714 eV
  | Electrostatic energy          :       -3307.18874525 Ha      -89993.18456096 eV
  | Energy correction for multipole
  | error in Hartree potential    :          -0.02096969 Ha          -0.57061434 eV
  | Sum of eigenvalues per atom                           :       -2202.73185531 eV
  | Total energy (T->0) per atom                          :       -3916.22879648 eV  <-- do not rely on this value for anything but (periodic) metals
  | Electronic free energy per atom                       :       -3916.22879648 eV
  Evaluating new KS density using the density matrix
  Evaluating density matrix
  Time summed over all CPUs for getting density from density matrix: real work      149.245 s, elapsed      167.577 s
  Integration grid: deviation in total charge (<rho> - N_e) =   5.684342E-14

  Self-consistency convergence accuracy:
  | Change of charge density      :  0.4721E-02
  | Change of unmixed KS density  :  0.6624E-02
  | Change of sum of eigenvalues  :  0.9420E-01 eV
  | Change of total energy        :  0.1042E-03 eV


------------------------------------------------------------
  End self-consistency iteration #     6       :  max(cpu_time)    wall_clock(cpu1)
  | Time for this iteration                     :       11.506 s          11.590 s
  | Charge density update                       :        7.017 s           7.069 s
  | Density mixing                              :        0.007 s           0.006 s
  | Hartree multipole update                    :        0.002 s           0.003 s
  | Hartree multipole summation                 :        0.238 s           0.239 s
  | Integration                                 :        3.597 s           3.622 s
  | Solution of K.-S. eqns.                     :        0.642 s           0.647 s
  | Total energy evaluation                     :        0.001 s           0.003 s

  Partial memory accounting:
  | Current value for overall tracked memory usage:
  |   Minimum:       61.846 MB (on task 22)
  |   Maximum:       64.995 MB (on task  9)
  |   Average:       63.165 MB
  | Peak value for overall tracked memory usage:
  |   Minimum:       92.448 MB (on task 20 after allocating gradient_basis_wave)
  |   Maximum:       96.850 MB (on task  8 after allocating gradient_basis_wave)
  |   Average:       94.255 MB
  | Largest tracked array allocation so far:
  |   Minimum:       21.380 MB (hamiltonian_shell on task  5)
  |   Maximum:       22.834 MB (hamiltonian_shell on task  8)
  |   Average:       22.191 MB
  Note:  These values currently only include a subset of arrays which are explicitly tracked.
  The "true" memory usage will be greater.
------------------------------------------------------------

------------------------------------------------------------
          Begin self-consistency iteration #    7

  Date     :  20251113, Time     :  171244.102
------------------------------------------------------------
  Pulay mixing of updated and previous charge densities.
  Available memory per node after mixing [GB]:    737.24
  Renormalizing the density to the exact electron count on the 3D integration grid.
  | Formal number of electrons (from input files) :     118.0000000000
  | Integrated number of electrons on 3D grid     :     118.0000000000
  | Charge integration error                      :      -0.0000000000
  | Normalization factor for density and gradient :       1.0000000000

  Evaluating partitioned Hartree potential by multipole expansion.
  | Original multipole sum: apparent total charge =   0.185467E-13
  | Sum of charges compensated after spline to logarithmic grids =   0.123770E-05
  | Analytical far-field extrapolation by fixed multipoles:
  | Hartree multipole sum: apparent total charge =   0.201701E-13
  Summing up the Hartree potential.
  Time summed over all CPUs for potential: real work        0.204 s, elapsed        0.209 s
  | RMS charge density error from multipole expansion :   0.145454E-01
  | Average real-space part of the electrostatic potential :      0.55872388 eV

  Integrating Hamiltonian matrix: batch-based integration.
  Time summed over all CPUs for integration: real work       72.486 s, elapsed       82.211 s

  Updating Kohn-Sham eigenvalues and eigenvectors using ELSI and the (modified) LAPACK eigensolver.
  Starting LAPACK eigensolver
  Finished Cholesky decomposition
  | Time :     0.009 s
  Finished transformation to standard eigenproblem
  | Time :     0.013 s
  Finished solving standard eigenproblem
  | Time :     0.068 s
  Finished back-transformation of eigenvectors
  | Time :     0.009 s

  Obtaining occupation numbers and electronic chemical potential using ELSI.
  | Note that, for insulating systems, the printed 'chemical potential' value is not uniquely defined.
  | It can be anywhere in the energy gap, as long as it correctly separates occupied and unoccupied states.
  | In systems with a gap, the physically relevant chemical potential is the VBM or HOMO.

  | Chemical potential (Fermi level):    -6.54605491 eV
  What follows are estimated values for band gap, HOMO, LUMO, etc.
  | They are estimated on a discrete k-point grid and not necessarily exact.
  | For converged numbers, create a DOS and/or band structure plot on a denser k-grid.

  Highest occupied state (VBM) at     -8.40512151 eV (relative to internal zero)
  | Occupation number:      2.00000000
  | K-point:       1 at    0.000000    0.000000    0.000000 (in units of recip. lattice)

  Lowest unoccupied state (CBM) at    -4.68698830 eV (relative to internal zero)
  | Occupation number:      0.00000000
  | K-point:      20 at    0.142857    0.000000    0.600000 (in units of recip. lattice)

  The gap value is above 0.2 eV. Unless you are using a very sparse k-point grid,
  this system is most likely an insulator or a semiconductor.
  ESTIMATED overall HOMO-LUMO gap:      3.71813321 eV between HOMO at k-point 1 and LUMO at k-point 20
  | This appears to be an indirect band gap.
  | Smallest direct gap :      3.74303730 eV for k_point 3 at    0.000000    0.000000    0.400000 (in units of recip. lattice)

  Total energy components:
  | Sum of eigenvalues            :        -971.37885893 Ha      -26432.56362560 eV
  | XC energy correction          :        -148.73090155 Ha       -4047.17374916 eV
  | XC potential correction       :         191.72845049 Ha        5217.19658574 eV
  | Free-atom electrostatic energy:        -796.35260705 Ha      -21669.85698811 eV
  | Hartree energy correction     :          -2.29123958 Ha         -62.34780124 eV
  | vdW energy correction         :           0.00000000 Ha           0.00000000 eV
  | Entropy correction            :           0.00000000 Ha           0.00000000 eV
  | ---------------------------
  | Total energy                  :       -1727.02515664 Ha      -46994.74557838 eV
  | Total energy, T -> 0          :       -1727.02515664 Ha      -46994.74557838 eV  <-- do not rely on this value for anything but (periodic) metals
  | Electronic free energy        :       -1727.02515664 Ha      -46994.74557838 eV

  Derived energy quantities:
  | Kinetic energy                :        1728.90805338 Ha       47045.98180557 eV
  | Electrostatic energy          :       -3307.20230846 Ha      -89993.55363478 eV
  | Energy correction for multipole
  | error in Hartree potential    :          -0.02105045 Ha          -0.57281191 eV
  | Sum of eigenvalues per atom                           :       -2202.71363547 eV
  | Total energy (T->0) per atom                          :       -3916.22879820 eV  <-- do not rely on this value for anything but (periodic) metals
  | Electronic free energy per atom                       :       -3916.22879820 eV
  Evaluating new KS density using the density matrix
  Evaluating density matrix
  Time summed over all CPUs for getting density from density matrix: real work      141.806 s, elapsed      161.600 s
  Integration grid: deviation in total charge (<rho> - N_e) =   2.842171E-14

  Self-consistency convergence accuracy:
  | Change of charge density      :  0.1836E-02
  | Change of unmixed KS density  :  0.2105E-02
  | Change of sum of eigenvalues  :  0.2186E+00 eV
  | Change of total energy        : -0.2062E-04 eV


------------------------------------------------------------
  End self-consistency iteration #     7       :  max(cpu_time)    wall_clock(cpu1)
  | Time for this iteration                     :       11.001 s          11.080 s
  | Charge density update                       :        6.773 s           6.819 s
  | Density mixing                              :        0.007 s           0.007 s
  | Hartree multipole update                    :        0.002 s           0.003 s
  | Hartree multipole summation                 :        0.211 s           0.212 s
  | Integration                                 :        3.430 s           3.454 s
  | Solution of K.-S. eqns.                     :        0.578 s           0.582 s
  | Total energy evaluation                     :        0.001 s           0.002 s

  Partial memory accounting:
  | Current value for overall tracked memory usage:
  |   Minimum:       61.846 MB (on task 22)
  |   Maximum:       64.995 MB (on task  9)
  |   Average:       63.165 MB
  | Peak value for overall tracked memory usage:
  |   Minimum:       92.448 MB (on task 20 after allocating gradient_basis_wave)
  |   Maximum:       96.850 MB (on task  8 after allocating gradient_basis_wave)
  |   Average:       94.255 MB
  | Largest tracked array allocation so far:
  |   Minimum:       21.380 MB (hamiltonian_shell on task  5)
  |   Maximum:       22.834 MB (hamiltonian_shell on task  8)
  |   Average:       22.191 MB
  Note:  These values currently only include a subset of arrays which are explicitly tracked.
  The "true" memory usage will be greater.
------------------------------------------------------------

------------------------------------------------------------
          Begin self-consistency iteration #    8

  Date     :  20251113, Time     :  171255.184
------------------------------------------------------------
  Pulay mixing of updated and previous charge densities.
  Available memory per node after mixing [GB]:    737.24
  Renormalizing the density to the exact electron count on the 3D integration grid.
  | Formal number of electrons (from input files) :     118.0000000000
  | Integrated number of electrons on 3D grid     :     118.0000000000
  | Charge integration error                      :      -0.0000000000
  | Normalization factor for density and gradient :       1.0000000000

  Evaluating partitioned Hartree potential by multipole expansion.
  | Original multipole sum: apparent total charge =   0.179563E-13
  | Sum of charges compensated after spline to logarithmic grids =   0.123520E-05
  | Analytical far-field extrapolation by fixed multipoles:
  | Hartree multipole sum: apparent total charge =   0.160377E-13
  Summing up the Hartree potential.
  Time summed over all CPUs for potential: real work        0.203 s, elapsed        0.208 s
  | RMS charge density error from multipole expansion :   0.145508E-01
  | Average real-space part of the electrostatic potential :      0.55883013 eV

  Integrating Hamiltonian matrix: batch-based integration.
  Time summed over all CPUs for integration: real work       72.200 s, elapsed       81.930 s

  Updating Kohn-Sham eigenvalues and eigenvectors using ELSI and the (modified) LAPACK eigensolver.
  Starting LAPACK eigensolver
  Finished Cholesky decomposition
  | Time :     0.008 s
  Finished transformation to standard eigenproblem
  | Time :     0.013 s
  Finished solving standard eigenproblem
  | Time :     0.068 s
  Finished back-transformation of eigenvectors
  | Time :     0.010 s

  Obtaining occupation numbers and electronic chemical potential using ELSI.
  | Note that, for insulating systems, the printed 'chemical potential' value is not uniquely defined.
  | It can be anywhere in the energy gap, as long as it correctly separates occupied and unoccupied states.
  | In systems with a gap, the physically relevant chemical potential is the VBM or HOMO.

  | Chemical potential (Fermi level):    -6.54480681 eV
  What follows are estimated values for band gap, HOMO, LUMO, etc.
  | They are estimated on a discrete k-point grid and not necessarily exact.
  | For converged numbers, create a DOS and/or band structure plot on a denser k-grid.

  Highest occupied state (VBM) at     -8.40434791 eV (relative to internal zero)
  | Occupation number:      2.00000000
  | K-point:       1 at    0.000000    0.000000    0.000000 (in units of recip. lattice)

  Lowest unoccupied state (CBM) at    -4.68526572 eV (relative to internal zero)
  | Occupation number:      0.00000000
  | K-point:      20 at    0.142857    0.000000    0.600000 (in units of recip. lattice)

  The gap value is above 0.2 eV. Unless you are using a very sparse k-point grid,
  this system is most likely an insulator or a semiconductor.
  ESTIMATED overall HOMO-LUMO gap:      3.71908219 eV between HOMO at k-point 1 and LUMO at k-point 20
  | This appears to be an indirect band gap.
  | Smallest direct gap :      3.74416913 eV for k_point 3 at    0.000000    0.000000    0.400000 (in units of recip. lattice)

  Total energy components:
  | Sum of eigenvalues            :        -971.37737443 Ha      -26432.52323033 eV
  | XC energy correction          :        -148.73109141 Ha       -4047.17891545 eV
  | XC potential correction       :         191.72869267 Ha        5217.20317579 eV
  | Free-atom electrostatic energy:        -796.35260705 Ha      -21669.85698811 eV
  | Hartree energy correction     :          -2.29277609 Ha         -62.38961162 eV
  | vdW energy correction         :           0.00000000 Ha           0.00000000 eV
  | Entropy correction            :           0.00000000 Ha           0.00000000 eV
  | ---------------------------
  | Total energy                  :       -1727.02515632 Ha      -46994.74556971 eV
  | Total energy, T -> 0          :       -1727.02515632 Ha      -46994.74556971 eV  <-- do not rely on this value for anything but (periodic) metals
  | Electronic free energy        :       -1727.02515632 Ha      -46994.74556971 eV

  Derived energy quantities:
  | Kinetic energy                :        1728.91426862 Ha       47046.15093106 eV
  | Electrostatic energy          :       -3307.20833353 Ha      -89993.71758532 eV
  | Energy correction for multipole
  | error in Hartree potential    :          -0.02105845 Ha          -0.57302954 eV
  | Sum of eigenvalues per atom                           :       -2202.71026919 eV
  | Total energy (T->0) per atom                          :       -3916.22879748 eV  <-- do not rely on this value for anything but (periodic) metals
  | Electronic free energy per atom                       :       -3916.22879748 eV
  Evaluating new KS density using the density matrix
  Evaluating density matrix
  Time summed over all CPUs for getting density from density matrix: real work      142.184 s, elapsed      162.215 s
  Integration grid: deviation in total charge (<rho> - N_e) =   7.105427E-14

  Self-consistency convergence accuracy:
  | Change of charge density      :  0.5021E-03
  | Change of unmixed KS density  :  0.8581E-03
  | Change of sum of eigenvalues  :  0.4040E-01 eV
  | Change of total energy        :  0.8662E-05 eV


------------------------------------------------------------
  End self-consistency iteration #     8       :  max(cpu_time)    wall_clock(cpu1)
  | Time for this iteration                     :       11.014 s          11.093 s
  | Charge density update                       :        6.795 s           6.843 s
  | Density mixing                              :        0.008 s           0.008 s
  | Hartree multipole update                    :        0.002 s           0.002 s
  | Hartree multipole summation                 :        0.211 s           0.212 s
  | Integration                                 :        3.419 s           3.441 s
  | Solution of K.-S. eqns.                     :        0.578 s           0.583 s
  | Total energy evaluation                     :        0.001 s           0.002 s

  Partial memory accounting:
  | Current value for overall tracked memory usage:
  |   Minimum:       61.846 MB (on task 22)
  |   Maximum:       64.995 MB (on task  9)
  |   Average:       63.165 MB
  | Peak value for overall tracked memory usage:
  |   Minimum:       92.448 MB (on task 20 after allocating gradient_basis_wave)
  |   Maximum:       96.850 MB (on task  8 after allocating gradient_basis_wave)
  |   Average:       94.255 MB
  | Largest tracked array allocation so far:
  |   Minimum:       21.380 MB (hamiltonian_shell on task  5)
  |   Maximum:       22.834 MB (hamiltonian_shell on task  8)
  |   Average:       22.191 MB
  Note:  These values currently only include a subset of arrays which are explicitly tracked.
  The "true" memory usage will be greater.
------------------------------------------------------------

------------------------------------------------------------
          Begin self-consistency iteration #    9

  Date     :  20251113, Time     :  171306.280
------------------------------------------------------------
  Pulay mixing of updated and previous charge densities.
  Available memory per node after mixing [GB]:    737.22
  Renormalizing the density to the exact electron count on the 3D integration grid.
  | Formal number of electrons (from input files) :     118.0000000000
  | Integrated number of electrons on 3D grid     :     118.0000000000
  | Charge integration error                      :      -0.0000000000
  | Normalization factor for density and gradient :       1.0000000000

  Evaluating partitioned Hartree potential by multipole expansion.
  | Original multipole sum: apparent total charge =   0.575587E-14
  | Sum of charges compensated after spline to logarithmic grids =   0.123501E-05
  | Analytical far-field extrapolation by fixed multipoles:
  | Hartree multipole sum: apparent total charge =   0.526392E-14
  Summing up the Hartree potential.
  Time summed over all CPUs for potential: real work        0.204 s, elapsed        0.208 s
  | RMS charge density error from multipole expansion :   0.145521E-01
  | Average real-space part of the electrostatic potential :      0.55884626 eV

  Integrating Hamiltonian matrix: batch-based integration.
  Time summed over all CPUs for integration: real work       72.302 s, elapsed       82.324 s

  Updating Kohn-Sham eigenvalues and eigenvectors using ELSI and the (modified) LAPACK eigensolver.
  Starting LAPACK eigensolver
  Finished Cholesky decomposition
  | Time :     0.009 s
  Finished transformation to standard eigenproblem
  | Time :     0.013 s
  Finished solving standard eigenproblem
  | Time :     0.069 s
  Finished back-transformation of eigenvectors
  | Time :     0.010 s

  Obtaining occupation numbers and electronic chemical potential using ELSI.
  | Note that, for insulating systems, the printed 'chemical potential' value is not uniquely defined.
  | It can be anywhere in the energy gap, as long as it correctly separates occupied and unoccupied states.
  | In systems with a gap, the physically relevant chemical potential is the VBM or HOMO.

  | Chemical potential (Fermi level):    -6.54500236 eV
  What follows are estimated values for band gap, HOMO, LUMO, etc.
  | They are estimated on a discrete k-point grid and not necessarily exact.
  | For converged numbers, create a DOS and/or band structure plot on a denser k-grid.

  Highest occupied state (VBM) at     -8.40449621 eV (relative to internal zero)
  | Occupation number:      2.00000000
  | K-point:       1 at    0.000000    0.000000    0.000000 (in units of recip. lattice)

  Lowest unoccupied state (CBM) at    -4.68550850 eV (relative to internal zero)
  | Occupation number:      0.00000000
  | K-point:      20 at    0.142857    0.000000    0.600000 (in units of recip. lattice)

  The gap value is above 0.2 eV. Unless you are using a very sparse k-point grid,
  this system is most likely an insulator or a semiconductor.
  ESTIMATED overall HOMO-LUMO gap:      3.71898772 eV between HOMO at k-point 1 and LUMO at k-point 20
  | This appears to be an indirect band gap.
  | Smallest direct gap :      3.74404390 eV for k_point 3 at    0.000000    0.000000    0.400000 (in units of recip. lattice)

  Total energy components:
  | Sum of eigenvalues            :        -971.37752765 Ha      -26432.52739960 eV
  | XC energy correction          :        -148.73109226 Ha       -4047.17893850 eV
  | XC potential correction       :         191.72869278 Ha        5217.20317880 eV
  | Free-atom electrostatic energy:        -796.35260705 Ha      -21669.85698811 eV
  | Hartree energy correction     :          -2.29262211 Ha         -62.38542180 eV
  | vdW energy correction         :           0.00000000 Ha           0.00000000 eV
  | Entropy correction            :           0.00000000 Ha           0.00000000 eV
  | ---------------------------
  | Total energy                  :       -1727.02515630 Ha      -46994.74556921 eV
  | Total energy, T -> 0          :       -1727.02515630 Ha      -46994.74556921 eV  <-- do not rely on this value for anything but (periodic) metals
  | Electronic free energy        :       -1727.02515630 Ha      -46994.74556921 eV

  Derived energy quantities:
  | Kinetic energy                :        1728.91441465 Ha       47046.15490465 eV
  | Electrostatic energy          :       -3307.20847869 Ha      -89993.72153536 eV
  | Energy correction for multipole
  | error in Hartree potential    :          -0.02106024 Ha          -0.57307824 eV
  | Sum of eigenvalues per atom                           :       -2202.71061663 eV
  | Total energy (T->0) per atom                          :       -3916.22879743 eV  <-- do not rely on this value for anything but (periodic) metals
  | Electronic free energy per atom                       :       -3916.22879743 eV
  Evaluating new KS density using the density matrix
  Evaluating density matrix
  Time summed over all CPUs for getting density from density matrix: real work      141.812 s, elapsed      162.070 s
  Integration grid: deviation in total charge (<rho> - N_e) =   8.526513E-14

  Self-consistency convergence accuracy:
  | Change of charge density      :  0.1095E-03
  | Change of unmixed KS density  :  0.2813E-03
  | Change of sum of eigenvalues  : -0.4169E-02 eV
  | Change of total energy        :  0.5070E-06 eV


------------------------------------------------------------
  End self-consistency iteration #     9       :  max(cpu_time)    wall_clock(cpu1)
  | Time for this iteration                     :       11.028 s          11.104 s
  | Charge density update                       :        6.792 s           6.838 s
  | Density mixing                              :        0.008 s           0.007 s
  | Hartree multipole update                    :        0.002 s           0.003 s
  | Hartree multipole summation                 :        0.211 s           0.212 s
  | Integration                                 :        3.435 s           3.458 s
  | Solution of K.-S. eqns.                     :        0.578 s           0.583 s
  | Total energy evaluation                     :        0.001 s           0.002 s

  Partial memory accounting:
  | Current value for overall tracked memory usage:
  |   Minimum:       61.846 MB (on task 22)
  |   Maximum:       64.995 MB (on task  9)
  |   Average:       63.165 MB
  | Peak value for overall tracked memory usage:
  |   Minimum:       92.448 MB (on task 20 after allocating gradient_basis_wave)
  |   Maximum:       96.850 MB (on task  8 after allocating gradient_basis_wave)
  |   Average:       94.255 MB
  | Largest tracked array allocation so far:
  |   Minimum:       21.380 MB (hamiltonian_shell on task  5)
  |   Maximum:       22.834 MB (hamiltonian_shell on task  8)
  |   Average:       22.191 MB
  Note:  These values currently only include a subset of arrays which are explicitly tracked.
  The "true" memory usage will be greater.
------------------------------------------------------------

------------------------------------------------------------
          Begin self-consistency iteration #   10

  Date     :  20251113, Time     :  171317.387
------------------------------------------------------------
  Pulay mixing of updated and previous charge densities.
  Available memory per node after mixing [GB]:    737.22
  Renormalizing the density to the exact electron count on the 3D integration grid.
  | Formal number of electrons (from input files) :     118.0000000000
  | Integrated number of electrons on 3D grid     :     118.0000000000
  | Charge integration error                      :       0.0000000000
  | Normalization factor for density and gradient :       1.0000000000

  Evaluating partitioned Hartree potential by multipole expansion.
  | Original multipole sum: apparent total charge =   0.486051E-13
  | Sum of charges compensated after spline to logarithmic grids =   0.123499E-05
  | Analytical far-field extrapolation by fixed multipoles:
  | Hartree multipole sum: apparent total charge =   0.501302E-13
  Summing up the Hartree potential.
  Time summed over all CPUs for potential: real work        0.203 s, elapsed        0.208 s
  | RMS charge density error from multipole expansion :   0.145530E-01
  | Average real-space part of the electrostatic potential :      0.55885716 eV

  Integrating Hamiltonian matrix: batch-based integration.
  Time summed over all CPUs for integration: real work       72.357 s, elapsed       81.946 s

  Updating Kohn-Sham eigenvalues and eigenvectors using ELSI and the (modified) LAPACK eigensolver.
  Starting LAPACK eigensolver
  Finished Cholesky decomposition
  | Time :     0.009 s
  Finished transformation to standard eigenproblem
  | Time :     0.013 s
  Finished solving standard eigenproblem
  | Time :     0.068 s
  Finished back-transformation of eigenvectors
  | Time :     0.010 s

  Obtaining occupation numbers and electronic chemical potential using ELSI.
  | Note that, for insulating systems, the printed 'chemical potential' value is not uniquely defined.
  | It can be anywhere in the energy gap, as long as it correctly separates occupied and unoccupied states.
  | In systems with a gap, the physically relevant chemical potential is the VBM or HOMO.

  | Chemical potential (Fermi level):    -6.54511826 eV
  What follows are estimated values for band gap, HOMO, LUMO, etc.
  | They are estimated on a discrete k-point grid and not necessarily exact.
  | For converged numbers, create a DOS and/or band structure plot on a denser k-grid.

  Highest occupied state (VBM) at     -8.40458365 eV (relative to internal zero)
  | Occupation number:      2.00000000
  | K-point:       1 at    0.000000    0.000000    0.000000 (in units of recip. lattice)

  Lowest unoccupied state (CBM) at    -4.68565287 eV (relative to internal zero)
  | Occupation number:      0.00000000
  | K-point:      20 at    0.142857    0.000000    0.600000 (in units of recip. lattice)

  The gap value is above 0.2 eV. Unless you are using a very sparse k-point grid,
  this system is most likely an insulator or a semiconductor.
  ESTIMATED overall HOMO-LUMO gap:      3.71893079 eV between HOMO at k-point 1 and LUMO at k-point 20
  | This appears to be an indirect band gap.
  | Smallest direct gap :      3.74397509 eV for k_point 3 at    0.000000    0.000000    0.400000 (in units of recip. lattice)

  Total energy components:
  | Sum of eigenvalues            :        -971.37771155 Ha      -26432.53240366 eV
  | XC energy correction          :        -148.73108672 Ha       -4047.17878776 eV
  | XC potential correction       :         191.72868501 Ha        5217.20296737 eV
  | Free-atom electrostatic energy:        -796.35260705 Ha      -21669.85698811 eV
  | Hartree energy correction     :          -2.29243599 Ha         -62.38035715 eV
  | vdW energy correction         :           0.00000000 Ha           0.00000000 eV
  | Entropy correction            :           0.00000000 Ha           0.00000000 eV
  | ---------------------------
  | Total energy                  :       -1727.02515630 Ha      -46994.74556930 eV
  | Total energy, T -> 0          :       -1727.02515630 Ha      -46994.74556930 eV  <-- do not rely on this value for anything but (periodic) metals
  | Electronic free energy        :       -1727.02515630 Ha      -46994.74556930 eV

  Derived energy quantities:
  | Kinetic energy                :        1728.91420976 Ha       47046.14932919 eV
  | Electrostatic energy          :       -3307.20827934 Ha      -89993.71611073 eV
  | Energy correction for multipole
  | error in Hartree potential    :          -0.02106141 Ha          -0.57311018 eV
  | Sum of eigenvalues per atom                           :       -2202.71103364 eV
  | Total energy (T->0) per atom                          :       -3916.22879744 eV  <-- do not rely on this value for anything but (periodic) metals
  | Electronic free energy per atom                       :       -3916.22879744 eV
  Evaluating new KS density using the density matrix
  Evaluating density matrix
  Time summed over all CPUs for getting density from density matrix: real work      149.723 s, elapsed      169.408 s
  Integration grid: deviation in total charge (<rho> - N_e) =   4.263256E-14

  Self-consistency convergence accuracy:
  | Change of charge density      :  0.4184E-04
  | Change of unmixed KS density  :  0.6420E-04
  | Change of sum of eigenvalues  : -0.5004E-02 eV
  | Change of total energy        : -0.9818E-07 eV


------------------------------------------------------------
  End self-consistency iteration #    10       :  max(cpu_time)    wall_clock(cpu1)
  | Time for this iteration                     :       11.319 s          11.397 s
  | Charge density update                       :        7.095 s           7.144 s
  | Density mixing                              :        0.008 s           0.007 s
  | Hartree multipole update                    :        0.002 s           0.003 s
  | Hartree multipole summation                 :        0.211 s           0.212 s
  | Integration                                 :        3.419 s           3.442 s
  | Solution of K.-S. eqns.                     :        0.580 s           0.585 s
  | Total energy evaluation                     :        0.001 s           0.002 s

  Partial memory accounting:
  | Current value for overall tracked memory usage:
  |   Minimum:       61.846 MB (on task 22)
  |   Maximum:       64.995 MB (on task  9)
  |   Average:       63.165 MB
  | Peak value for overall tracked memory usage:
  |   Minimum:       92.448 MB (on task 20 after allocating gradient_basis_wave)
  |   Maximum:       96.850 MB (on task  8 after allocating gradient_basis_wave)
  |   Average:       94.255 MB
  | Largest tracked array allocation so far:
  |   Minimum:       21.380 MB (hamiltonian_shell on task  5)
  |   Maximum:       22.834 MB (hamiltonian_shell on task  8)
  |   Average:       22.191 MB
  Note:  These values currently only include a subset of arrays which are explicitly tracked.
  The "true" memory usage will be greater.
------------------------------------------------------------

------------------------------------------------------------
          Begin self-consistency iteration #   11

  Date     :  20251113, Time     :  171328.787
------------------------------------------------------------
  Pulay mixing of updated and previous charge densities.
  Available memory per node after mixing [GB]:    736.08
  Renormalizing the density to the exact electron count on the 3D integration grid.
  | Formal number of electrons (from input files) :     118.0000000000
  | Integrated number of electrons on 3D grid     :     118.0000000000
  | Charge integration error                      :      -0.0000000000
  | Normalization factor for density and gradient :       1.0000000000

  Evaluating partitioned Hartree potential by multipole expansion.
  | Original multipole sum: apparent total charge =   0.353715E-13
  | Sum of charges compensated after spline to logarithmic grids =   0.123500E-05
  | Analytical far-field extrapolation by fixed multipoles:
  | Hartree multipole sum: apparent total charge =   0.350272E-13
  Summing up the Hartree potential.
  Time summed over all CPUs for potential: real work        0.235 s, elapsed        0.241 s
  | RMS charge density error from multipole expansion :   0.145533E-01
  | Average real-space part of the electrostatic potential :      0.55886251 eV

  Integrating Hamiltonian matrix: batch-based integration.
  Time summed over all CPUs for integration: real work       79.028 s, elapsed       87.411 s

  Updating Kohn-Sham eigenvalues and eigenvectors using ELSI and the (modified) LAPACK eigensolver.
  Starting LAPACK eigensolver
  Finished Cholesky decomposition
  | Time :     0.010 s
  Finished transformation to standard eigenproblem
  | Time :     0.016 s
  Finished solving standard eigenproblem
  | Time :     0.080 s
  Finished back-transformation of eigenvectors
  | Time :     0.012 s

  Obtaining occupation numbers and electronic chemical potential using ELSI.
  | Note that, for insulating systems, the printed 'chemical potential' value is not uniquely defined.
  | It can be anywhere in the energy gap, as long as it correctly separates occupied and unoccupied states.
  | In systems with a gap, the physically relevant chemical potential is the VBM or HOMO.

  | Chemical potential (Fermi level):    -6.54512261 eV
  What follows are estimated values for band gap, HOMO, LUMO, etc.
  | They are estimated on a discrete k-point grid and not necessarily exact.
  | For converged numbers, create a DOS and/or band structure plot on a denser k-grid.

  Highest occupied state (VBM) at     -8.40458374 eV (relative to internal zero)
  | Occupation number:      2.00000000
  | K-point:       1 at    0.000000    0.000000    0.000000 (in units of recip. lattice)

  Lowest unoccupied state (CBM) at    -4.68566149 eV (relative to internal zero)
  | Occupation number:      0.00000000
  | K-point:      20 at    0.142857    0.000000    0.600000 (in units of recip. lattice)

  The gap value is above 0.2 eV. Unless you are using a very sparse k-point grid,
  this system is most likely an insulator or a semiconductor.
  ESTIMATED overall HOMO-LUMO gap:      3.71892225 eV between HOMO at k-point 1 and LUMO at k-point 20
  | This appears to be an indirect band gap.
  | Smallest direct gap :      3.74396499 eV for k_point 3 at    0.000000    0.000000    0.400000 (in units of recip. lattice)

  Total energy components:
  | Sum of eigenvalues            :        -971.37772250 Ha      -26432.53270178 eV
  | XC energy correction          :        -148.73108709 Ha       -4047.17879791 eV
  | XC potential correction       :         191.72868538 Ha        5217.20297765 eV
  | Free-atom electrostatic energy:        -796.35260705 Ha      -21669.85698811 eV
  | Hartree energy correction     :          -2.29242504 Ha         -62.38005912 eV
  | vdW energy correction         :           0.00000000 Ha           0.00000000 eV
  | Entropy correction            :           0.00000000 Ha           0.00000000 eV
  | ---------------------------
  | Total energy                  :       -1727.02515630 Ha      -46994.74556928 eV
  | Total energy, T -> 0          :       -1727.02515630 Ha      -46994.74556928 eV  <-- do not rely on this value for anything but (periodic) metals
  | Electronic free energy        :       -1727.02515630 Ha      -46994.74556928 eV

  Derived energy quantities:
  | Kinetic energy                :        1728.91414380 Ha       47046.14753449 eV
  | Electrostatic energy          :       -3307.20821301 Ha      -89993.71430586 eV
  | Energy correction for multipole
  | error in Hartree potential    :          -0.02106185 Ha          -0.57312202 eV
  | Sum of eigenvalues per atom                           :       -2202.71105848 eV
  | Total energy (T->0) per atom                          :       -3916.22879744 eV  <-- do not rely on this value for anything but (periodic) metals
  | Electronic free energy per atom                       :       -3916.22879744 eV
  Evaluating new KS density using the density matrix
  Evaluating density matrix
  Time summed over all CPUs for getting density from density matrix: real work      145.138 s, elapsed      164.486 s
  Integration grid: deviation in total charge (<rho> - N_e) =   4.263256E-14

  Self-consistency convergence accuracy:
  | Change of charge density      :  0.1288E-04
  | Change of unmixed KS density  :  0.1959E-04
  | Change of sum of eigenvalues  : -0.2981E-03 eV
  | Change of total energy        :  0.2561E-07 eV


------------------------------------------------------------
  End self-consistency iteration #    11       :  max(cpu_time)    wall_clock(cpu1)
  | Time for this iteration                     :       11.466 s          11.550 s
  | Charge density update                       :        6.893 s           6.942 s
  | Density mixing                              :        0.009 s           0.007 s
  | Hartree multipole update                    :        0.002 s           0.003 s
  | Hartree multipole summation                 :        0.243 s           0.245 s
  | Integration                                 :        3.645 s           3.670 s
  | Solution of K.-S. eqns.                     :        0.674 s           0.680 s
  | Total energy evaluation                     :        0.001 s           0.002 s

  Partial memory accounting:
  | Current value for overall tracked memory usage:
  |   Minimum:       61.846 MB (on task 22)
  |   Maximum:       64.995 MB (on task  9)
  |   Average:       63.165 MB
  | Peak value for overall tracked memory usage:
  |   Minimum:       92.448 MB (on task 20 after allocating gradient_basis_wave)
  |   Maximum:       96.850 MB (on task  8 after allocating gradient_basis_wave)
  |   Average:       94.255 MB
  | Largest tracked array allocation so far:
  |   Minimum:       21.380 MB (hamiltonian_shell on task  5)
  |   Maximum:       22.834 MB (hamiltonian_shell on task  8)
  |   Average:       22.191 MB
  Note:  These values currently only include a subset of arrays which are explicitly tracked.
  The "true" memory usage will be greater.
------------------------------------------------------------

------------------------------------------------------------
          Begin self-consistency iteration #   12

  Date     :  20251113, Time     :  171340.339
------------------------------------------------------------
  Pulay mixing of updated and previous charge densities.
  Available memory per node after mixing [GB]:    737.25
  Renormalizing the density to the exact electron count on the 3D integration grid.
  | Formal number of electrons (from input files) :     118.0000000000
  | Integrated number of electrons on 3D grid     :     118.0000000000
  | Charge integration error                      :       0.0000000000
  | Normalization factor for density and gradient :       1.0000000000

  Evaluating partitioned Hartree potential by multipole expansion.
  | Original multipole sum: apparent total charge =   0.686769E-13
  | Sum of charges compensated after spline to logarithmic grids =   0.123501E-05
  | Analytical far-field extrapolation by fixed multipoles:
  | Hartree multipole sum: apparent total charge =   0.680865E-13
  Summing up the Hartree potential.
  Time summed over all CPUs for potential: real work        0.207 s, elapsed        0.211 s
  | RMS charge density error from multipole expansion :   0.145534E-01
  | Average real-space part of the electrostatic potential :      0.55886529 eV

  Integrating Hamiltonian matrix: batch-based integration.
  Time summed over all CPUs for integration: real work       72.194 s, elapsed       82.052 s

  Updating Kohn-Sham eigenvalues and eigenvectors using ELSI and the (modified) LAPACK eigensolver.
  Starting LAPACK eigensolver
  Finished Cholesky decomposition
  | Time :     0.009 s
  Finished transformation to standard eigenproblem
  | Time :     0.013 s
  Finished solving standard eigenproblem
  | Time :     0.067 s
  Finished back-transformation of eigenvectors
  | Time :     0.010 s

  Obtaining occupation numbers and electronic chemical potential using ELSI.
  | Note that, for insulating systems, the printed 'chemical potential' value is not uniquely defined.
  | It can be anywhere in the energy gap, as long as it correctly separates occupied and unoccupied states.
  | In systems with a gap, the physically relevant chemical potential is the VBM or HOMO.

  | Chemical potential (Fermi level):    -6.54511506 eV
  What follows are estimated values for band gap, HOMO, LUMO, etc.
  | They are estimated on a discrete k-point grid and not necessarily exact.
  | For converged numbers, create a DOS and/or band structure plot on a denser k-grid.

  Highest occupied state (VBM) at     -8.40457657 eV (relative to internal zero)
  | Occupation number:      2.00000000
  | K-point:       1 at    0.000000    0.000000    0.000000 (in units of recip. lattice)

  Lowest unoccupied state (CBM) at    -4.68565354 eV (relative to internal zero)
  | Occupation number:      0.00000000
  | K-point:      20 at    0.142857    0.000000    0.600000 (in units of recip. lattice)

  The gap value is above 0.2 eV. Unless you are using a very sparse k-point grid,
  this system is most likely an insulator or a semiconductor.
  ESTIMATED overall HOMO-LUMO gap:      3.71892303 eV between HOMO at k-point 1 and LUMO at k-point 20
  | This appears to be an indirect band gap.
  | Smallest direct gap :      3.74396613 eV for k_point 3 at    0.000000    0.000000    0.400000 (in units of recip. lattice)

  Total energy components:
  | Sum of eigenvalues            :        -971.37770653 Ha      -26432.53226724 eV
  | XC energy correction          :        -148.73108904 Ha       -4047.17885088 eV
  | XC potential correction       :         191.72868791 Ha        5217.20304634 eV
  | Free-atom electrostatic energy:        -796.35260705 Ha      -21669.85698811 eV
  | Hartree energy correction     :          -2.29244158 Ha         -62.38050934 eV
  | vdW energy correction         :           0.00000000 Ha           0.00000000 eV
  | Entropy correction            :           0.00000000 Ha           0.00000000 eV
  | ---------------------------
  | Total energy                  :       -1727.02515630 Ha      -46994.74556923 eV
  | Total energy, T -> 0          :       -1727.02515630 Ha      -46994.74556923 eV  <-- do not rely on this value for anything but (periodic) metals
  | Electronic free energy        :       -1727.02515630 Ha      -46994.74556923 eV

  Derived energy quantities:
  | Kinetic energy                :        1728.91414163 Ha       47046.14747550 eV
  | Electrostatic energy          :       -3307.20820890 Ha      -89993.71419385 eV
  | Energy correction for multipole
  | error in Hartree potential    :          -0.02106201 Ha          -0.57312643 eV
  | Sum of eigenvalues per atom                           :       -2202.71102227 eV
  | Total energy (T->0) per atom                          :       -3916.22879744 eV  <-- do not rely on this value for anything but (periodic) metals
  | Electronic free energy per atom                       :       -3916.22879744 eV
  Evaluating new KS density using the density matrix
  Evaluating density matrix
  Time summed over all CPUs for getting density from density matrix: real work      141.735 s, elapsed      161.854 s
  Integration grid: deviation in total charge (<rho> - N_e) =   2.842171E-14

  Self-consistency convergence accuracy:
  | Change of charge density      :  0.4592E-05
  | Change of unmixed KS density  :  0.2777E-05
  | Change of sum of eigenvalues  :  0.4345E-03 eV
  | Change of total energy        :  0.4881E-07 eV


------------------------------------------------------------
  End self-consistency iteration #    12       :  max(cpu_time)    wall_clock(cpu1)
  | Time for this iteration                     :       11.013 s          11.087 s
  | Charge density update                       :        6.784 s           6.830 s
  | Density mixing                              :        0.008 s           0.007 s
  | Hartree multipole update                    :        0.002 s           0.003 s
  | Hartree multipole summation                 :        0.214 s           0.215 s
  | Integration                                 :        3.424 s           3.447 s
  | Solution of K.-S. eqns.                     :        0.577 s           0.582 s
  | Total energy evaluation                     :        0.001 s           0.002 s

  Partial memory accounting:
  | Current value for overall tracked memory usage:
  |   Minimum:       61.846 MB (on task 22)
  |   Maximum:       64.995 MB (on task  9)
  |   Average:       63.165 MB
  | Peak value for overall tracked memory usage:
  |   Minimum:       92.448 MB (on task 20 after allocating gradient_basis_wave)
  |   Maximum:       96.850 MB (on task  8 after allocating gradient_basis_wave)
  |   Average:       94.255 MB
  | Largest tracked array allocation so far:
  |   Minimum:       21.380 MB (hamiltonian_shell on task  5)
  |   Maximum:       22.834 MB (hamiltonian_shell on task  8)
  |   Average:       22.191 MB
  Note:  These values currently only include a subset of arrays which are explicitly tracked.
  The "true" memory usage will be greater.
------------------------------------------------------------

------------------------------------------------------------
          Begin self-consistency iteration #   13

  Date     :  20251113, Time     :  171351.429
------------------------------------------------------------
  Pulay mixing of updated and previous charge densities.
  Available memory per node after mixing [GB]:    737.25
  Renormalizing the density to the exact electron count on the 3D integration grid.
  | Formal number of electrons (from input files) :     118.0000000000
  | Integrated number of electrons on 3D grid     :     118.0000000000
  | Charge integration error                      :      -0.0000000000
  | Normalization factor for density and gradient :       1.0000000000

  Evaluating partitioned Hartree potential by multipole expansion.
  | Original multipole sum: apparent total charge =   0.379789E-13
  | Sum of charges compensated after spline to logarithmic grids =   0.123501E-05
  | Analytical far-field extrapolation by fixed multipoles:
  | Hartree multipole sum: apparent total charge =   0.356667E-13
  Summing up the Hartree potential.
  Time summed over all CPUs for potential: real work        0.204 s, elapsed        0.209 s
  | RMS charge density error from multipole expansion :   0.145534E-01
  | Average real-space part of the electrostatic potential :      0.55886591 eV

  Integrating Hamiltonian matrix: batch-based integration.
  Time summed over all CPUs for integration: real work       72.312 s, elapsed       82.126 s

  Updating Kohn-Sham eigenvalues and eigenvectors using ELSI and the (modified) LAPACK eigensolver.
  Starting LAPACK eigensolver
  Finished Cholesky decomposition
  | Time :     0.010 s
  Finished transformation to standard eigenproblem
  | Time :     0.013 s
  Finished solving standard eigenproblem
  | Time :     0.069 s
  Finished back-transformation of eigenvectors
  | Time :     0.010 s

  Obtaining occupation numbers and electronic chemical potential using ELSI.
  | Note that, for insulating systems, the printed 'chemical potential' value is not uniquely defined.
  | It can be anywhere in the energy gap, as long as it correctly separates occupied and unoccupied states.
  | In systems with a gap, the physically relevant chemical potential is the VBM or HOMO.

  | Chemical potential (Fermi level):    -6.54511321 eV
  What follows are estimated values for band gap, HOMO, LUMO, etc.
  | They are estimated on a discrete k-point grid and not necessarily exact.
  | For converged numbers, create a DOS and/or band structure plot on a denser k-grid.

  Highest occupied state (VBM) at     -8.40457499 eV (relative to internal zero)
  | Occupation number:      2.00000000
  | K-point:       1 at    0.000000    0.000000    0.000000 (in units of recip. lattice)

  Lowest unoccupied state (CBM) at    -4.68565144 eV (relative to internal zero)
  | Occupation number:      0.00000000
  | K-point:      20 at    0.142857    0.000000    0.600000 (in units of recip. lattice)

  The gap value is above 0.2 eV. Unless you are using a very sparse k-point grid,
  this system is most likely an insulator or a semiconductor.
  ESTIMATED overall HOMO-LUMO gap:      3.71892356 eV between HOMO at k-point 1 and LUMO at k-point 20
  | This appears to be an indirect band gap.
  | Smallest direct gap :      3.74396687 eV for k_point 3 at    0.000000    0.000000    0.400000 (in units of recip. lattice)

  Total energy components:
  | Sum of eigenvalues            :        -971.37770419 Ha      -26432.53220331 eV
  | XC energy correction          :        -148.73108932 Ha       -4047.17885849 eV
  | XC potential correction       :         191.72868827 Ha        5217.20305630 eV
  | Free-atom electrostatic energy:        -796.35260705 Ha      -21669.85698811 eV
  | Hartree energy correction     :          -2.29244402 Ha         -62.38057560 eV
  | vdW energy correction         :           0.00000000 Ha           0.00000000 eV
  | Entropy correction            :           0.00000000 Ha           0.00000000 eV
  | ---------------------------
  | Total energy                  :       -1727.02515630 Ha      -46994.74556921 eV
  | Total energy, T -> 0          :       -1727.02515630 Ha      -46994.74556921 eV  <-- do not rely on this value for anything but (periodic) metals
  | Electronic free energy        :       -1727.02515630 Ha      -46994.74556921 eV

  Derived energy quantities:
  | Kinetic energy                :        1728.91414317 Ha       47046.14751719 eV
  | Electrostatic energy          :       -3307.20821015 Ha      -89993.71422790 eV
  | Energy correction for multipole
  | error in Hartree potential    :          -0.02106205 Ha          -0.57312742 eV
  | Sum of eigenvalues per atom                           :       -2202.71101694 eV
  | Total energy (T->0) per atom                          :       -3916.22879743 eV  <-- do not rely on this value for anything but (periodic) metals
  | Electronic free energy per atom                       :       -3916.22879743 eV

  Self-consistency convergence accuracy:
  | Change of charge density      :  0.9528E-06
  | Change of unmixed KS density  :  0.1201E-05
  | Change of sum of eigenvalues  :  0.6393E-04 eV
  | Change of total energy        :  0.1828E-07 eV

  Writing Kohn-Sham eigenvalues.
  K-point:       1 at    0.000000    0.000000    0.000000 (in units of recip. lattice)

  State    Occupation    Eigenvalue [Ha]    Eigenvalue [eV]
      1       2.00000         -88.906367        -2419.26533
      2       2.00000         -88.906367        -2419.26533
      3       2.00000         -38.049785        -1035.38732
      4       2.00000         -38.049785        -1035.38732
      5       2.00000         -18.941873         -515.43460
      6       2.00000         -18.941871         -515.43453
      7       2.00000         -18.858578         -513.16803
      8       2.00000         -18.858578         -513.16802
      9       2.00000         -18.855487         -513.08391
     10       2.00000         -18.855487         -513.08391
     11       2.00000         -18.855010         -513.07093
     12       2.00000         -18.855010         -513.07093
     13       2.00000          -7.972100         -216.93188
     14       2.00000          -7.972100         -216.93188
     15       2.00000          -5.947702         -161.84521
     16       2.00000          -5.947702         -161.84521
     17       2.00000          -5.944142         -161.74833
     18       2.00000          -5.944142         -161.74833
     19       2.00000          -5.943948         -161.74306
     20       2.00000          -5.943948         -161.74306
     21       2.00000          -2.099894          -57.14102
     22       2.00000          -2.099855          -57.13997
     23       2.00000          -1.169719          -31.82967
     24       2.00000          -1.138998          -30.99371
     25       2.00000          -1.077856          -29.32996
     26       2.00000          -1.069245          -29.09562
     27       2.00000          -1.069099          -29.09166
     28       2.00000          -1.068789          -29.08322
     29       2.00000          -1.068323          -29.07054
     30       2.00000          -1.068154          -29.06595
     31       2.00000          -1.067365          -29.04447
     32       2.00000          -1.002537          -27.28042
     33       2.00000          -1.002517          -27.27986
     34       2.00000          -0.996769          -27.12347
     35       2.00000          -0.996150          -27.10663
     36       2.00000          -0.926640          -25.21517
     37       2.00000          -0.660364          -17.96943
     38       2.00000          -0.620422          -16.88255
     39       2.00000          -0.579268          -15.76269
     40       2.00000          -0.554698          -15.09410
     41       2.00000          -0.523533          -14.24605
     42       2.00000          -0.516980          -14.06774
     43       2.00000          -0.514184          -13.99167
     44       2.00000          -0.504263          -13.72170
     45       2.00000          -0.464996          -12.65318
     46       2.00000          -0.458597          -12.47905
     47       2.00000          -0.417268          -11.35445
     48       2.00000          -0.411837          -11.20667
     49       2.00000          -0.404151          -10.99751
     50       2.00000          -0.395470          -10.76128
     51       2.00000          -0.387765          -10.55163
     52       2.00000          -0.385589          -10.49240
     53       2.00000          -0.383871          -10.44567
     54       2.00000          -0.363436           -9.88960
     55       2.00000          -0.362332           -9.85956
     56       2.00000          -0.346342           -9.42443
     57       2.00000          -0.327419           -8.90952
     58       2.00000          -0.324989           -8.84341
     59       2.00000          -0.308862           -8.40457
     60       0.00000          -0.167785           -4.56567
     61       0.00000          -0.109473           -2.97890
     62       0.00000          -0.040290           -1.09634
     63       0.00000          -0.035423           -0.96392
     64       0.00000          -0.006552           -0.17829
     65       0.00000           0.017572            0.47816
     66       0.00000           0.034558            0.94038
     67       0.00000           0.047817            1.30117
     68       0.00000           0.058319            1.58695
     69       0.00000           0.067892            1.84745
     70       0.00000           0.071802            1.95382
     71       0.00000           0.127303            3.46409
     72       0.00000           0.132662            3.60993
     73       0.00000           0.162903            4.43282
     74       0.00000           0.165476            4.50284
     75       0.00000           0.166072            4.51905
     76       0.00000           0.169827            4.62123
     77       0.00000           0.188069            5.11763
     78       0.00000           0.191833            5.22003
     79       0.00000           0.198190            5.39302
     80       0.00000           0.228841            6.22707
     81       0.00000           0.274039            7.45697
     82       0.00000           0.290034            7.89224
     83       0.00000           0.300764            8.18421
     84       0.00000           0.301563            8.20594
     85       0.00000           0.317689            8.64476
     86       0.00000           0.333113            9.06447
     87       0.00000           0.340982            9.27860
     88       0.00000           0.367055            9.98807
     89       0.00000           0.374695           10.19596
     90       0.00000           0.379348           10.32260
     91       0.00000           0.411668           11.20205
     92       0.00000           0.429699           11.69271
     93       0.00000           0.461698           12.56345
     94       0.00000           0.479432           13.04600
     95       0.00000           0.484069           13.17218
     96       0.00000           0.497397           13.53486
     97       0.00000           0.502210           13.66584
     98       0.00000           0.537883           14.63655
     99       0.00000           0.539255           14.67388
    100       0.00000           0.550710           14.98559
    101       0.00000           0.587105           15.97595
    102       0.00000           0.589931           16.05285
    103       0.00000           0.597256           16.25215
    104       0.00000           0.617716           16.80890
    105       0.00000           0.628643           17.10624
    106       0.00000           0.641890           17.46672
    107       0.00000           0.650145           17.69134
    108       0.00000           0.678629           18.46644
    109       0.00000           0.700242           19.05456
    110       0.00000           0.714319           19.43760
    111       0.00000           0.745072           20.27443
    112       0.00000           0.757483           20.61215
    113       0.00000           0.762852           20.75827
    114       0.00000           0.781564           21.26744
    115       0.00000           0.787080           21.41754
    116       0.00000           0.789421           21.48124
    117       0.00000           0.816697           22.22346
    118       0.00000           0.840989           22.88446
    119       0.00000           0.842390           22.92259
    120       0.00000           0.851158           23.16120
    121       0.00000           0.868565           23.63485
    122       0.00000           0.871765           23.72194
    123       0.00000           0.900642           24.50772
    124       0.00000           0.913301           24.85217
    125       0.00000           0.917579           24.96861
    126       0.00000           0.931923           25.35892
    127       0.00000           0.950806           25.87275
    128       0.00000           0.962378           26.18764
    129       0.00000           0.963421           26.21601
    130       0.00000           0.978600           26.62905
    131       0.00000           1.003235           27.29941
    132       0.00000           1.020994           27.78265
    133       0.00000           1.046252           28.46998
    134       0.00000           1.049867           28.56833
    135       0.00000           1.066316           29.01595
    136       0.00000           1.079602           29.37745
    137       0.00000           1.087905           29.60341
    138       0.00000           1.101137           29.96347
    139       0.00000           1.106037           30.09679
    140       0.00000           1.124897           30.61000
    141       0.00000           1.136773           30.93316
    142       0.00000           1.141833           31.07085
    143       0.00000           1.157398           31.49439
    144       0.00000           1.165596           31.71748
    145       0.00000           1.175503           31.98705
    146       0.00000           1.177016           32.02822
    147       0.00000           1.198799           32.62098
    148       0.00000           1.227488           33.40164
    149       0.00000           1.245756           33.89873
    150       0.00000           1.254648           34.14071
    151       0.00000           1.267681           34.49537
    152       0.00000           1.273341           34.64936
    153       0.00000           1.299290           35.35549
    154       0.00000           1.315573           35.79855
    155       0.00000           1.334098           36.30264
    156       0.00000           1.340057           36.46480
    157       0.00000           1.364000           37.11633
    158       0.00000           1.366439           37.18270
    159       0.00000           1.378048           37.49860
    160       0.00000           1.385096           37.69039
    161       0.00000           1.401920           38.14818
    162       0.00000           1.405700           38.25105
    163       0.00000           1.407752           38.30687
    164       0.00000           1.426975           38.82996
    165       0.00000           1.435689           39.06709
    166       0.00000           1.477582           40.20706
    167       0.00000           1.511980           41.14307
    168       0.00000           1.514240           41.20456
    169       0.00000           1.533024           41.71569
    170       0.00000           1.558788           42.41678
    171       0.00000           1.570053           42.72332
    172       0.00000           1.591989           43.32023
    173       0.00000           1.603171           43.62450
    174       0.00000           1.620856           44.10573
    175       0.00000           1.634784           44.48475
    176       0.00000           1.639004           44.59956
    177       0.00000           1.659478           45.15669
    178       0.00000           1.682220           45.77552
    179       0.00000           1.698983           46.23167
    180       0.00000           1.704053           46.36963
    181       0.00000           1.718466           46.76184
    182       0.00000           1.718808           46.77115
    183       0.00000           1.736958           47.26503
    184       0.00000           1.778355           48.39149
    185       0.00000           1.784849           48.56822
    186       0.00000           1.785404           48.58332
    187       0.00000           1.793912           48.81483
    188       0.00000           1.803188           49.06725
    189       0.00000           1.819890           49.52173
    190       0.00000           1.864584           50.73792
    191       0.00000           1.866497           50.78996
    192       0.00000           1.872995           50.96680
    193       0.00000           1.877340           51.08503
    194       0.00000           1.914825           52.10504
    195       0.00000           1.921577           52.28877
    196       0.00000           1.941842           52.84020
    197       0.00000           1.982470           53.94576
    198       0.00000           1.982962           53.95914
    199       0.00000           2.003282           54.51207
    200       0.00000           2.006309           54.59444
    201       0.00000           2.014165           54.80823
    202       0.00000           2.047166           55.70621
    203       0.00000           2.070788           56.34900
    204       0.00000           2.089915           56.86949
    205       0.00000           2.100383           57.15433
    206       0.00000           2.142194           58.29205
    207       0.00000           2.145949           58.39425
    208       0.00000           2.165492           58.92602
    209       0.00000           2.189803           59.58757
    210       0.00000           2.212920           60.21663
    211       0.00000           2.228295           60.63498
    212       0.00000           2.241561           60.99597
    213       0.00000           2.297237           62.51100
    214       0.00000           2.316425           63.03313
    215       0.00000           2.328780           63.36932
    216       0.00000           2.331480           63.44281
    217       0.00000           2.349062           63.92122
    218       0.00000           2.377159           64.68578
    219       0.00000           2.389364           65.01789
    220       0.00000           2.424295           65.96842
    221       0.00000           2.430904           66.14826
    222       0.00000           2.432492           66.19147
    223       0.00000           2.472773           67.28757
    224       0.00000           2.491488           67.79685
    225       0.00000           2.516350           68.47337
    226       0.00000           2.526072           68.73792
    227       0.00000           2.544031           69.22662
    228       0.00000           2.579145           70.18209
    229       0.00000           2.614623           71.14752
    230       0.00000           2.621143           71.32493
    231       0.00000           2.652334           72.17369
    232       0.00000           2.666017           72.54601
    233       0.00000           2.677548           72.85978
    234       0.00000           2.709969           73.74200
    235       0.00000           2.716744           73.92637
    236       0.00000           2.729312           74.26837
    237       0.00000           2.770933           75.40093
    238       0.00000           2.811183           76.49619
    239       0.00000           2.847677           77.48923
    240       0.00000           2.869809           78.09146
    241       0.00000           2.878787           78.33579
    242       0.00000           2.908673           79.14901
    243       0.00000           2.941605           80.04515
    244       0.00000           2.953643           80.37272
    245       0.00000           2.956123           80.44019
    246       0.00000           2.957632           80.48125
    247       0.00000           2.988955           81.33360
    248       0.00000           3.004361           81.75281
    249       0.00000           3.018984           82.15074
    250       0.00000           3.060266           83.27406
    251       0.00000           3.065721           83.42252
    252       0.00000           3.090032           84.08405
    253       0.00000           3.131859           85.22222
    254       0.00000           3.170691           86.27889
    255       0.00000           3.171003           86.28739
    256       0.00000           3.183952           86.63973
    257       0.00000           3.215095           87.48720
    258       0.00000           3.247253           88.36225
    259       0.00000           3.251372           88.47433
    260       0.00000           3.270291           88.98915
    261       0.00000           3.327088           90.53467
    262       0.00000           3.330460           90.62644
    263       0.00000           3.351651           91.20307
    264       0.00000           3.370849           91.72547
    265       0.00000           3.383066           92.05790
    266       0.00000           3.384755           92.10388
    267       0.00000           3.436285           93.50607
    268       0.00000           3.449778           93.87324
    269       0.00000           3.459957           94.15023
    270       0.00000           3.467915           94.36678
    271       0.00000           3.505187           95.38099
    272       0.00000           3.552330           96.66381
    273       0.00000           3.553290           96.68995
    274       0.00000           3.563860           96.97756
    275       0.00000           3.608070           98.18057
    276       0.00000           3.613173           98.31943
    277       0.00000           3.622286           98.56742
    278       0.00000           3.641130           99.08019
    279       0.00000           3.654421           99.44185
    280       0.00000           3.687682          100.34694
    281       0.00000           3.728860          101.46745
    282       0.00000           3.759084          102.28987
    283       0.00000           3.762842          102.39213
    284       0.00000           3.781414          102.89750
    285       0.00000           3.785375          103.00530
    286       0.00000           3.802436          103.46954
    287       0.00000           3.828402          104.17611
    288       0.00000           3.848372          104.71954
    289       0.00000           3.858085          104.98383
    290       0.00000           3.865298          105.18012
    291       0.00000           3.869417          105.29219
    292       0.00000           3.920683          106.68722
    293       0.00000           3.920803          106.69049
    294       0.00000           3.950035          107.48592
    295       0.00000           3.969943          108.02764
    296       0.00000           3.995505          108.72322
    297       0.00000           4.020185          109.39480
    298       0.00000           4.043003          110.01571
    299       0.00000           4.054337          110.32413
    300       0.00000           4.065827          110.63678
    301       0.00000           4.074870          110.88286
    302       0.00000           4.096694          111.47672
    303       0.00000           4.096834          111.48051
    304       0.00000           4.133287          112.47247
    305       0.00000           4.149727          112.91982
    306       0.00000           4.174316          113.58891
    307       0.00000           4.175911          113.63232
    308       0.00000           4.225107          114.97100
    309       0.00000           4.241439          115.41542
    310       0.00000           4.245026          115.51304
    311       0.00000           4.282221          116.52516
    312       0.00000           4.294481          116.85878
    313       0.00000           4.338332          118.05202
    314       0.00000           4.342196          118.15717
    315       0.00000           4.343858          118.20240
    316       0.00000           4.364917          118.77545
    317       0.00000           4.368717          118.87883
    318       0.00000           4.433893          120.65236
    319       0.00000           4.460782          121.38405
    320       0.00000           4.469657          121.62554
    321       0.00000           4.477476          121.83832
    322       0.00000           4.528193          123.21841
    323       0.00000           4.545387          123.68628
    324       0.00000           4.556240          123.98159
    325       0.00000           4.570273          124.36345
    326       0.00000           4.600325          125.18121
    327       0.00000           4.611549          125.48663
    328       0.00000           4.621437          125.75571
    329       0.00000           4.712891          128.24428
    330       0.00000           4.712995          128.24713
    331       0.00000           4.717594          128.37225
    332       0.00000           4.748710          129.21896
    333       0.00000           4.751433          129.29308
    334       0.00000           4.774341          129.91642
    335       0.00000           4.797338          130.54222
    336       0.00000           4.846858          131.88972
    337       0.00000           4.873860          132.62449
    338       0.00000           4.893309          133.15370
    339       0.00000           4.915891          133.76819
    340       0.00000           4.949735          134.68914
    341       0.00000           4.950753          134.71685
    342       0.00000           4.997711          135.99464
    343       0.00000           5.035565          137.02470
    344       0.00000           5.064597          137.81469
    345       0.00000           5.077563          138.16752
    346       0.00000           5.090252          138.51280
    347       0.00000           5.137883          139.80892
    348       0.00000           5.155792          140.29623
    349       0.00000           5.190712          141.24647
    350       0.00000           5.217810          141.98385
    351       0.00000           5.219192          142.02144
    352       0.00000           5.245244          142.73036
    353       0.00000           5.254423          142.98013
    354       0.00000           5.279041          143.65002
    355       0.00000           5.286610          143.85597
    356       0.00000           5.299715          144.21257
    357       0.00000           5.322515          144.83301
    358       0.00000           5.335249          145.17951
    359       0.00000           5.345505          145.45858
    360       0.00000           5.358651          145.81632
    361       0.00000           5.374038          146.23503
    362       0.00000           5.402719          147.01547
    363       0.00000           5.410664          147.23166
    364       0.00000           5.430498          147.77137
    365       0.00000           5.444834          148.16146
    366       0.00000           5.466433          148.74920
    367       0.00000           5.514589          150.05961
    368       0.00000           5.526084          150.37240
    369       0.00000           5.533908          150.58530
    370       0.00000           5.552784          151.09894
    371       0.00000           5.579263          151.81946
    372       0.00000           5.593224          152.19936
    373       0.00000           5.609039          152.62971
    374       0.00000           5.624076          153.03890
    375       0.00000           5.630423          153.21159
    376       0.00000           5.643158          153.55814
    377       0.00000           5.676619          154.46866
    378       0.00000           5.709036          155.35076
    379       0.00000           5.711577          155.41991
    380       0.00000           5.740814          156.21551
    381       0.00000           5.746269          156.36392
    382       0.00000           5.794469          157.67551
    383       0.00000           5.812383          158.16298
    384       0.00000           5.867361          159.65903
    385       0.00000           5.905957          160.70927
    386       0.00000           5.907387          160.74818
    387       0.00000           5.963093          162.26401
    388       0.00000           5.979510          162.71074
    389       0.00000           6.008115          163.48913
    390       0.00000           6.016421          163.71515
    391       0.00000           6.032686          164.15774
    392       0.00000           6.034980          164.22017
    393       0.00000           6.065320          165.04576
    394       0.00000           6.094354          165.83581
    395       0.00000           6.121797          166.58259
    396       0.00000           6.137679          167.01474
    397       0.00000           6.219162          169.23202
    398       0.00000           6.224135          169.36732
    399       0.00000           6.241255          169.83320
    400       0.00000           6.274599          170.74053
    401       0.00000           6.325988          172.13888
    402       0.00000           6.334034          172.35784
    403       0.00000           6.344625          172.64602
    404       0.00000           6.370752          173.35698
    405       0.00000           6.386176          173.77670
    406       0.00000           6.436732          175.15240
    407       0.00000           6.453136          175.59877
    408       0.00000           6.479126          176.30598
    409       0.00000           6.548636          178.19746
    410       0.00000           6.579842          179.04662
    411       0.00000           6.598765          179.56153
    412       0.00000           6.598862          179.56418
    413       0.00000           6.661110          181.25804
    414       0.00000           6.670624          181.51691
    415       0.00000           6.684694          181.89977
    416       0.00000           6.786252          184.66332
    417       0.00000           6.837783          186.06554
    418       0.00000           6.853422          186.49110
    419       0.00000           6.860651          186.68782
    420       0.00000           6.941941          188.89982
    421       0.00000           6.991060          190.23643
    422       0.00000           7.052414          191.90594
    423       0.00000           7.053964          191.94812
    424       0.00000           7.070740          192.40463
    425       0.00000           7.142625          194.36073
    426       0.00000           7.171713          195.15225
    427       0.00000           7.242276          197.07236
    428       0.00000           7.294858          198.50318
    429       0.00000           7.298259          198.59574
    430       0.00000           7.349160          199.98082
    431       0.00000           7.452190          202.78442
    432       0.00000           7.455401          202.87178
    433       0.00000           7.602464          206.87358
    434       0.00000           7.619228          207.32975
    435       0.00000           7.719628          210.06177
    436       0.00000           7.781425          211.74335
    437       0.00000           7.896496          214.87458
    438       0.00000           8.125953          221.11844
    439       0.00000           8.435587          229.54399
    440       0.00000           8.780478          238.92895
    441       0.00000           8.971360          244.12313
    442       0.00000           9.762591          265.65362
    443       0.00000          12.304279          334.81646
    444       0.00000          13.980653          380.43293
    445       0.00000          22.412255          609.86848
    446       0.00000          25.756936          700.88190
    447       0.00000          26.401972          718.43420
    448       0.00000          26.472404          720.35077
    449       0.00000          27.325333          743.56014
    450       0.00000          27.658317          752.62111
    451       0.00000          27.916616          759.64977
    452       0.00000          28.660354          779.88791

  What follows are estimated values for band gap, HOMO, LUMO, etc.
  | They are estimated on a discrete k-point grid and not necessarily exact.
  | For converged numbers, create a DOS and/or band structure plot on a denser k-grid.

  Highest occupied state (VBM) at     -8.40457499 eV (relative to internal zero)
  | Occupation number:      2.00000000
  | K-point:       1 at    0.000000    0.000000    0.000000 (in units of recip. lattice)

  Lowest unoccupied state (CBM) at    -4.68565144 eV (relative to internal zero)
  | Occupation number:      0.00000000
  | K-point:      20 at    0.142857    0.000000    0.600000 (in units of recip. lattice)

  The gap value is above 0.2 eV. Unless you are using a very sparse k-point grid,
  this system is most likely an insulator or a semiconductor.
  ESTIMATED overall HOMO-LUMO gap:      3.71892356 eV between HOMO at k-point 1 and LUMO at k-point 20
  | This appears to be an indirect band gap.
  | Smallest direct gap :      3.74396687 eV for k_point 3 at    0.000000    0.000000    0.400000 (in units of recip. lattice)

  | Chemical Potential                          :    -6.54511321 eV
  | Note that, for insulating systems, the printed 'chemical potential' value is not uniquely defined.
  | It can be anywhere in the energy gap, as long as it correctly separates occupied and unoccupied states.
  | In systems with a gap, the physically relevant chemical potential is the VBM or HOMO.

  Self-consistency cycle converged.


------------------------------------------------------------
  End self-consistency iteration #    13       :  max(cpu_time)    wall_clock(cpu1)
  | Time for this iteration                     :        4.232 s           4.282 s
  | Charge density update                       :        0.000 s           0.000 s
  | Density mixing                              :        0.008 s           0.008 s
  | Hartree multipole update                    :        0.002 s           0.002 s
  | Hartree multipole summation                 :        0.211 s           0.213 s
  | Integration                                 :        3.428 s           3.451 s
  | Solution of K.-S. eqns.                     :        0.581 s           0.585 s
  | Total energy evaluation                     :        0.001 s           0.002 s

  Partial memory accounting:
  | Current value for overall tracked memory usage:
  |   Minimum:       61.846 MB (on task 22)
  |   Maximum:       64.995 MB (on task  9)
  |   Average:       63.165 MB
  | Peak value for overall tracked memory usage:
  |   Minimum:       92.448 MB (on task 20 after allocating gradient_basis_wave)
  |   Maximum:       96.850 MB (on task  8 after allocating gradient_basis_wave)
  |   Average:       94.255 MB
  | Largest tracked array allocation so far:
  |   Minimum:       21.380 MB (hamiltonian_shell on task  5)
  |   Maximum:       22.834 MB (hamiltonian_shell on task  8)
  |   Average:       22.191 MB
  Note:  These values currently only include a subset of arrays which are explicitly tracked.
  The "true" memory usage will be greater.
------------------------------------------------------------

  Calculating the D3 dispersion correction
  Using the s-dftd3 library (https://github.com/dftd3/simple-dftd3), version: 1.1.0
  Using D3 parameters for the pbe functional

  Parameters used for D3 dispersion correction with rational (Becke-Johnson) damping:
  #     s6              s8              s9              a1              a2              alpha
   1.00000000E+00  7.87500000E-01  1.00000000E+00  4.28900000E-01  4.44070000E+00  1.40000000E+01

  | D3 dispersion energy = -5.38703072186E-02 Ha

  Total energy components:
  | Sum of eigenvalues            :        -971.37770419 Ha      -26432.53220331 eV
  | XC energy correction          :        -148.73108932 Ha       -4047.17885849 eV
  | XC potential correction       :         191.72868827 Ha        5217.20305630 eV
  | Free-atom electrostatic energy:        -796.35260705 Ha      -21669.85698811 eV
  | Hartree energy correction     :          -2.29244402 Ha         -62.38057560 eV
  | vdW energy correction         :          -0.05387031 Ha          -1.46588564 eV
  | Entropy correction            :           0.00000000 Ha           0.00000000 eV
  | ---------------------------
  | Total energy                  :       -1727.07902661 Ha      -46996.21145485 eV
  | Total energy, T -> 0          :       -1727.07902661 Ha      -46996.21145485 eV  <-- do not rely on this value for anything but (periodic) metals
  | Electronic free energy        :       -1727.07902661 Ha      -46996.21145485 eV

  Derived energy quantities:
  | Kinetic energy                :        1728.91414317 Ha       47046.14751719 eV
  | Electrostatic energy          :       -3307.20821015 Ha      -89993.71422790 eV
  | Energy correction for multipole
  | error in Hartree potential    :          -0.02106205 Ha          -0.57312742 eV
  | Sum of eigenvalues per atom                           :       -2202.71101694 eV
  | Total energy (T->0) per atom                          :       -3916.35095457 eV  <-- do not rely on this value for anything but (periodic) metals
  | Electronic free energy per atom                       :       -3916.35095457 eV
  Timings for VdW-like correction (Tkatchenko-Scheffler, MBD, XDM, LL and others):
  | CPU time:        0.538 s, Wall clock time:        0.557 s.

  Energy and forces in a compact form:
  | Total energy uncorrected      :         -0.469962114548544E+05 eV
  | Total energy corrected        :         -0.469962114548544E+05 eV  <-- do not rely on this value for anything but (periodic) metals
  | Electronic free energy        :         -0.469962114548544E+05 eV

  ------------------------------------ 
  Start decomposition of the XC Energy 
  ------------------------------------ 
  X and C from original XC functional choice 
  Hartree-Fock Energy :          0.000000000 Ha              0.000000000 eV
  X Energy            :       -144.407692198 Ha          -3929.533237161 eV
  C Energy            :         -4.323397118 Ha           -117.645621332 eV
  XC Energy w/o HF    :       -148.731089316 Ha          -4047.178858493 eV
  Total XC Energy     :       -148.731089316 Ha          -4047.178858493 eV
  ------------------------------------ 
  LDA X and C from self-consistent density 
  X Energy LDA        :       -132.608923783 Ha          -3608.472413201 eV
  C Energy LDA        :         -8.680741149 Ha           -236.214985143 eV
  ------------------------------------ 
  End decomposition of the XC Energy 
  ------------------------------------ 

------------------------------------------------------------
  -------------------------------ELECTRIC FIELD RESPONSE-------------------------------

    ______ _           _        _        ______ _      _     _   _____
   |  ____| |         | |      (_)      |  ____(_)    | |   | | |  __ \
   | |__  | | ___  ___| |_ _ __ _  ___  | |__   _  ___| | __| | | |__) |___  ___ _ __   ___  _ __  ___  ___
   |  __| | |/ _ \/ __| __|  __| |/ __| |  __| | |/ _ \ |/ _  | |  _  // _ \/ __|  _ \ / _ \|  _ \/ __|/ _ \
   | |____| |  __/ (__| |_| |  | | (__  | |    | |  __/ | (_| | | | \ \  __/\__ \ |_) | (_) | | | \__ \  __/
   |______|_|\___|\___|\__|_|  |_|\___| |_|    |_|\___|_|\__ _| |_|  \_\___||___/  __/ \___/|_| |_|___/\___|
                                                                                | |
                                                                                |_|

  -------------------------------ELECTRIC FIELD RESPONSE-------------------------------
  Starting electric field response allocation
  Electronic response calculation using reduced memory
  Starting DFPT general allocation
  Finding HOMO and LUMO states
  Printing HOMO, LUMO states for each k-point:
    k-point    1 spin-channel   1 Highest occupied state:    59 Lowest unoccupied state  60
    k-point    2 spin-channel   1 Highest occupied state:    59 Lowest unoccupied state  60
    k-point    3 spin-channel   1 Highest occupied state:    59 Lowest unoccupied state  60
    k-point    4 spin-channel   1 Highest occupied state:    59 Lowest unoccupied state  60
    k-point    5 spin-channel   1 Highest occupied state:    59 Lowest unoccupied state  60
    k-point    6 spin-channel   1 Highest occupied state:    59 Lowest unoccupied state  60
    k-point    7 spin-channel   1 Highest occupied state:    59 Lowest unoccupied state  60
    k-point    8 spin-channel   1 Highest occupied state:    59 Lowest unoccupied state  60
    k-point    9 spin-channel   1 Highest occupied state:    59 Lowest unoccupied state  60
    k-point   10 spin-channel   1 Highest occupied state:    59 Lowest unoccupied state  60
    k-point   11 spin-channel   1 Highest occupied state:    59 Lowest unoccupied state  60
    k-point   12 spin-channel   1 Highest occupied state:    59 Lowest unoccupied state  60
    k-point   13 spin-channel   1 Highest occupied state:    59 Lowest unoccupied state  60
    k-point   14 spin-channel   1 Highest occupied state:    59 Lowest unoccupied state  60
    k-point   15 spin-channel   1 Highest occupied state:    59 Lowest unoccupied state  60
    k-point   16 spin-channel   1 Highest occupied state:    59 Lowest unoccupied state  60
    k-point   17 spin-channel   1 Highest occupied state:    59 Lowest unoccupied state  60
    k-point   18 spin-channel   1 Highest occupied state:    59 Lowest unoccupied state  60
    k-point   19 spin-channel   1 Highest occupied state:    59 Lowest unoccupied state  60
    k-point   20 spin-channel   1 Highest occupied state:    59 Lowest unoccupied state  60
    k-point   21 spin-channel   1 Highest occupied state:    59 Lowest unoccupied state  60
    k-point   22 spin-channel   1 Highest occupied state:    59 Lowest unoccupied state  60
    k-point   23 spin-channel   1 Highest occupied state:    59 Lowest unoccupied state  60
    k-point   24 spin-channel   1 Highest occupied state:    59 Lowest unoccupied state  60
    k-point   25 spin-channel   1 Highest occupied state:    59 Lowest unoccupied state  60
    k-point   26 spin-channel   1 Highest occupied state:    59 Lowest unoccupied state  60
    k-point   27 spin-channel   1 Highest occupied state:    59 Lowest unoccupied state  60
    k-point   28 spin-channel   1 Highest occupied state:    59 Lowest unoccupied state  60
    k-point   29 spin-channel   1 Highest occupied state:    59 Lowest unoccupied state  60
    k-point   30 spin-channel   1 Highest occupied state:    59 Lowest unoccupied state  60
    k-point   31 spin-channel   1 Highest occupied state:    59 Lowest unoccupied state  60
    k-point   32 spin-channel   1 Highest occupied state:    59 Lowest unoccupied state  60
    k-point   33 spin-channel   1 Highest occupied state:    59 Lowest unoccupied state  60
    k-point   34 spin-channel   1 Highest occupied state:    59 Lowest unoccupied state  60
    k-point   35 spin-channel   1 Highest occupied state:    59 Lowest unoccupied state  60
    k-point   36 spin-channel   1 Highest occupied state:    59 Lowest unoccupied state  60
    k-point   37 spin-channel   1 Highest occupied state:    59 Lowest unoccupied state  60
    k-point   38 spin-channel   1 Highest occupied state:    59 Lowest unoccupied state  60
    k-point   39 spin-channel   1 Highest occupied state:    59 Lowest unoccupied state  60
    k-point   40 spin-channel   1 Highest occupied state:    59 Lowest unoccupied state  60
    k-point   41 spin-channel   1 Highest occupied state:    59 Lowest unoccupied state  60
    k-point   42 spin-channel   1 Highest occupied state:    59 Lowest unoccupied state  60
    k-point   43 spin-channel   1 Highest occupied state:    59 Lowest unoccupied state  60
    k-point   44 spin-channel   1 Highest occupied state:    59 Lowest unoccupied state  60
    k-point   45 spin-channel   1 Highest occupied state:    59 Lowest unoccupied state  60
    k-point   46 spin-channel   1 Highest occupied state:    59 Lowest unoccupied state  60
    k-point   47 spin-channel   1 Highest occupied state:    59 Lowest unoccupied state  60
    k-point   48 spin-channel   1 Highest occupied state:    59 Lowest unoccupied state  60
    k-point   49 spin-channel   1 Highest occupied state:    59 Lowest unoccupied state  60
    k-point   50 spin-channel   1 Highest occupied state:    59 Lowest unoccupied state  60
    k-point   51 spin-channel   1 Highest occupied state:    59 Lowest unoccupied state  60
    k-point   52 spin-channel   1 Highest occupied state:    59 Lowest unoccupied state  60
    k-point   53 spin-channel   1 Highest occupied state:    59 Lowest unoccupied state  60
    k-point   54 spin-channel   1 Highest occupied state:    59 Lowest unoccupied state  60
    k-point   55 spin-channel   1 Highest occupied state:    59 Lowest unoccupied state  60
    k-point   56 spin-channel   1 Highest occupied state:    59 Lowest unoccupied state  60
    k-point   57 spin-channel   1 Highest occupied state:    59 Lowest unoccupied state  60
    k-point   58 spin-channel   1 Highest occupied state:    59 Lowest unoccupied state  60
    k-point   59 spin-channel   1 Highest occupied state:    59 Lowest unoccupied state  60
    k-point   60 spin-channel   1 Highest occupied state:    59 Lowest unoccupied state  60
    k-point   61 spin-channel   1 Highest occupied state:    59 Lowest unoccupied state  60
    k-point   62 spin-channel   1 Highest occupied state:    59 Lowest unoccupied state  60
    k-point   63 spin-channel   1 Highest occupied state:    59 Lowest unoccupied state  60
    k-point   64 spin-channel   1 Highest occupied state:    59 Lowest unoccupied state  60
    k-point   65 spin-channel   1 Highest occupied state:    59 Lowest unoccupied state  60
    k-point   66 spin-channel   1 Highest occupied state:    59 Lowest unoccupied state  60
    k-point   67 spin-channel   1 Highest occupied state:    59 Lowest unoccupied state  60
    k-point   68 spin-channel   1 Highest occupied state:    59 Lowest unoccupied state  60
    k-point   69 spin-channel   1 Highest occupied state:    59 Lowest unoccupied state  60
    k-point   70 spin-channel   1 Highest occupied state:    59 Lowest unoccupied state  60
    k-point   71 spin-channel   1 Highest occupied state:    59 Lowest unoccupied state  60
    k-point   72 spin-channel   1 Highest occupied state:    59 Lowest unoccupied state  60
    k-point   73 spin-channel   1 Highest occupied state:    59 Lowest unoccupied state  60
    k-point   74 spin-channel   1 Highest occupied state:    59 Lowest unoccupied state  60
    k-point   75 spin-channel   1 Highest occupied state:    59 Lowest unoccupied state  60
    k-point   76 spin-channel   1 Highest occupied state:    59 Lowest unoccupied state  60
    k-point   77 spin-channel   1 Highest occupied state:    59 Lowest unoccupied state  60
    k-point   78 spin-channel   1 Highest occupied state:    59 Lowest unoccupied state  60
    k-point   79 spin-channel   1 Highest occupied state:    59 Lowest unoccupied state  60
    k-point   80 spin-channel   1 Highest occupied state:    59 Lowest unoccupied state  60
    k-point   81 spin-channel   1 Highest occupied state:    59 Lowest unoccupied state  60
    k-point   82 spin-channel   1 Highest occupied state:    59 Lowest unoccupied state  60
    k-point   83 spin-channel   1 Highest occupied state:    59 Lowest unoccupied state  60
    k-point   84 spin-channel   1 Highest occupied state:    59 Lowest unoccupied state  60
    k-point   85 spin-channel   1 Highest occupied state:    59 Lowest unoccupied state  60
    k-point   86 spin-channel   1 Highest occupied state:    59 Lowest unoccupied state  60
    k-point   87 spin-channel   1 Highest occupied state:    59 Lowest unoccupied state  60
    k-point   88 spin-channel   1 Highest occupied state:    59 Lowest unoccupied state  60
    k-point   89 spin-channel   1 Highest occupied state:    59 Lowest unoccupied state  60
    k-point   90 spin-channel   1 Highest occupied state:    59 Lowest unoccupied state  60
    k-point   91 spin-channel   1 Highest occupied state:    59 Lowest unoccupied state  60
    k-point   92 spin-channel   1 Highest occupied state:    59 Lowest unoccupied state  60
    k-point   93 spin-channel   1 Highest occupied state:    59 Lowest unoccupied state  60
    k-point   94 spin-channel   1 Highest occupied state:    59 Lowest unoccupied state  60
    k-point   95 spin-channel   1 Highest occupied state:    59 Lowest unoccupied state  60
    k-point   96 spin-channel   1 Highest occupied state:    59 Lowest unoccupied state  60
    k-point   97 spin-channel   1 Highest occupied state:    59 Lowest unoccupied state  60
    k-point   98 spin-channel   1 Highest occupied state:    59 Lowest unoccupied state  60
    k-point   99 spin-channel   1 Highest occupied state:    59 Lowest unoccupied state  60
    k-point  100 spin-channel   1 Highest occupied state:    59 Lowest unoccupied state  60
    k-point  101 spin-channel   1 Highest occupied state:    59 Lowest unoccupied state  60
    k-point  102 spin-channel   1 Highest occupied state:    59 Lowest unoccupied state  60
    k-point  103 spin-channel   1 Highest occupied state:    59 Lowest unoccupied state  60
    k-point  104 spin-channel   1 Highest occupied state:    59 Lowest unoccupied state  60
    k-point  105 spin-channel   1 Highest occupied state:    59 Lowest unoccupied state  60
    k-point  106 spin-channel   1 Highest occupied state:    59 Lowest unoccupied state  60
  Electric field response: Begin calculation of momentum matrix
 n_ham_mat_size_no_sym     4549881
 for            1
  Integrating momentum_matrix_sparse matrix: batch-based integration.
  Time summed over all CPUs for integration: real work      970.662 s, elapsed     1004.776 s
 for            2
  Integrating momentum_matrix_sparse matrix: batch-based integration.
  Time summed over all CPUs for integration: real work      970.148 s, elapsed     1005.683 s
 for            3
  Integrating momentum_matrix_sparse matrix: batch-based integration.
  Time summed over all CPUs for integration: real work      938.197 s, elapsed      971.948 s
  Electric field response: Finished calculation of momentum matrix


===========================================================================
                             CPSCF cycle

  CPSCF for electric field response
  CPSCF working for i_q_point =    0
  Number of CPSCF atoms:      0
  Number of CPSCF coordinates:      1
  Pulay mixer will be used
  Mixing parameter for CPSCF:    0.2000E+00
  Convergence accuracy for CPSCF:    0.1000E-02
  DFPT smearing width for fractional occupation / eV:    0.0000E+00

==========================================================================

Calculating first order coefficient matrix for initial guess
  Starting DFPT first order coefficients calculation

--------------------------------------------------------------
          Begin CP-self-consistency iteration #    1

          Date     :  20251113, Time     :  171601.694
--------------------------------------------------------------
  Starting DFPT first order density matrix calculation
 FIRST_ORDER_DM_sparse
 0.6999595E-04
 0.7476219E-03
-0.5650119E-02
-0.6472806E-03
-0.9678247E-02
 0.4103688E-02
 0.2588564E-02
-0.1951796E-01
-0.2768478E-01
-0.6648507E-01
 0.9390408E-03
 0.3314221E-02
-0.4957654E-02
 0.7714847E-02
 0.2682903E-02
 0.1344042E-02
 0.9238030E-02
-0.1566471E-01
 0.1148442E-01
 0.3969145E-02
  Finished DFPT first order density matrix calculation

  CPSCF convergence accuracy:
  | Change of first_order_density_matrix     :  0.0000E+00
  Starting DFPT first order electron density calculation
  Integrating first_order_rho: batch-based integration.
  Time summed over all CPUs for integration: real work      378.089 s, elapsed      387.212 s
  Starting DFPT first order potential calculation
 FIRST_ORDER_TOTAL_RHO
-0.8437119E-03
 0.4901868E-03
 0.0000000E+00
 0.0000000E+00
 0.2146000E-02
 0.3436391E-02
 0.5151704E-03
-0.5480711E-02
 0.5283415E-02
-0.5149049E-02
-0.4421353E-02
 0.0000000E+00
 0.0000000E+00
 0.0000000E+00
 0.0000000E+00
 0.0000000E+00
 0.0000000E+00
 0.0000000E+00
 0.0000000E+00
 0.0000000E+00

  Evaluating partitioned Hartree potential by multipole expansion.
  | Original multipole sum: apparent total charge =   0.787128E-13
  | Sum of charges compensated after spline to logarithmic grids =  -0.538690E-14
  | Analytical far-field extrapolation by fixed multipoles:
  | Hartree multipole sum: apparent total charge =   0.814677E-13
  Summing up the Hartree potential.
  Time summed over all CPUs for potential: real work       17.168 s, elapsed       17.443 s
  | RMS delta_rho error from multipole expansion :   0.991651E-01

  Starting DFPT first order Hamiltonian calculation
  Integrating first-order-Hamiltonian matrix: batch-based integration.
  Time summed over all CPUs for integration: real work     1867.176 s, elapsed     2044.788 s
  Starting DFPT first order coefficients calculation
  End CPSCF iteration #     1                  :  max(cpu_time)    wall_clock(cpu1)
  | Time for this iteration                     :      102.320 s         103.027 s
  | first_order_DM                              :        0.466 s           0.470 s
  | first_order_density                         :       16.066 s          16.187 s
  | first_order_potential                       :        0.730 s           0.736 s
  | first_order_H                               :       84.722 s          85.380 s
  | Solution of Sternheimer eqns.               :        0.220 s           0.222 s
------------------------------------------------------------

--------------------------------------------------------------
          Begin CP-self-consistency iteration #    2

          Date     :  20251113, Time     :  171744.722
--------------------------------------------------------------
  Starting DFPT first order density matrix calculation
 FIRST_ORDER_DM_sparse
 0.8947511E-04
 0.5349430E-03
-0.7015355E-02
 0.4109600E-04
 0.6047718E-02
-0.3578140E-02
 0.3117535E-02
-0.1557115E-01
 0.1226627E-01
-0.3259345E-01
 0.1295909E-02
-0.7918439E-03
-0.3665300E-02
-0.1858057E-02
 0.2608010E-02
-0.5574955E-02
-0.1701410E+00
-0.5723906E-02
-0.3345638E+00
 0.4834458E-01
  Finished DFPT first order density matrix calculation

  CPSCF convergence accuracy:
  | Change of first_order_density_matrix     :  0.6292E+01
  Starting DFPT first order electron density calculation
  Integrating first_order_rho: batch-based integration.
  Time summed over all CPUs for integration: real work      368.665 s, elapsed      377.903 s
  Starting DFPT first order potential calculation
 FIRST_ORDER_TOTAL_RHO
-0.1266993E-02
-0.4531644E-03
 0.0000000E+00
 0.0000000E+00
 0.2621635E-03
 0.8298194E-03
-0.5319241E-03
-0.3782729E-02
 0.1688856E-02
-0.3694333E-02
-0.3396928E-02
 0.0000000E+00
 0.0000000E+00
 0.0000000E+00
 0.0000000E+00
 0.0000000E+00
 0.0000000E+00
 0.0000000E+00
 0.0000000E+00
 0.0000000E+00

  Evaluating partitioned Hartree potential by multipole expansion.
  | Original multipole sum: apparent total charge =  -0.983910E-14
  | Sum of charges compensated after spline to logarithmic grids =   0.432920E-14
  | Analytical far-field extrapolation by fixed multipoles:
  | Hartree multipole sum: apparent total charge =  -0.531311E-14
  Summing up the Hartree potential.
  Time summed over all CPUs for potential: real work       16.976 s, elapsed       17.251 s
  | RMS delta_rho error from multipole expansion :   0.429496E-01

  Starting DFPT first order Hamiltonian calculation
  Integrating first-order-Hamiltonian matrix: batch-based integration.
  Time summed over all CPUs for integration: real work     1871.397 s, elapsed     2048.273 s
  Starting DFPT first order coefficients calculation
  End CPSCF iteration #     2                  :  max(cpu_time)    wall_clock(cpu1)
  | Time for this iteration                     :      102.069 s         102.773 s
  | first_order_DM                              :        0.421 s           0.424 s
  | first_order_density                         :       15.676 s          15.796 s
  | first_order_potential                       :        0.721 s           0.726 s
  | first_order_H                               :       84.873 s          85.527 s
  | Solution of Sternheimer eqns.               :        0.220 s           0.221 s
------------------------------------------------------------

--------------------------------------------------------------
          Begin CP-self-consistency iteration #    3

          Date     :  20251113, Time     :  171927.496
--------------------------------------------------------------
  Starting DFPT first order density matrix calculation
 FIRST_ORDER_DM_sparse
 0.7731380E-04
 0.6684098E-03
-0.5574396E-02
-0.3714555E-03
-0.3446274E-02
 0.1101690E-02
 0.2748981E-02
-0.1627049E-01
-0.1214141E-01
-0.4879234E-01
 0.1030240E-02
 0.1933536E-02
-0.5018567E-02
 0.4206209E-02
 0.2740539E-02
-0.1064962E-02
-0.4903697E-01
-0.1076464E-01
-0.1010500E+00
 0.1692915E-01
  Finished DFPT first order density matrix calculation

  CPSCF convergence accuracy:
  | Change of first_order_density_matrix     :  0.1043E+01
  Starting DFPT first order electron density calculation
  Integrating first_order_rho: batch-based integration.
  Time summed over all CPUs for integration: real work      363.731 s, elapsed      373.837 s
  Starting DFPT first order potential calculation
 FIRST_ORDER_TOTAL_RHO
-0.3467491E-02
-0.1847869E-02
 0.0000000E+00
 0.0000000E+00
-0.1056551E-02
-0.3014029E-03
-0.2143402E-02
-0.8243115E-02
 0.9439078E-03
-0.8281699E-02
-0.7960227E-02
 0.0000000E+00
 0.0000000E+00
 0.0000000E+00
 0.0000000E+00
 0.0000000E+00
 0.0000000E+00
 0.0000000E+00
 0.0000000E+00
 0.0000000E+00

  Evaluating partitioned Hartree potential by multipole expansion.
  | Original multipole sum: apparent total charge =  -0.109608E-12
  | Sum of charges compensated after spline to logarithmic grids =  -0.100236E-14
  | Analytical far-field extrapolation by fixed multipoles:
  | Hartree multipole sum: apparent total charge =  -0.111182E-12
  Summing up the Hartree potential.
  Time summed over all CPUs for potential: real work       19.195 s, elapsed       19.505 s
  | RMS delta_rho error from multipole expansion :   0.655550E-01

  Starting DFPT first order Hamiltonian calculation
  Integrating first-order-Hamiltonian matrix: batch-based integration.
  Time summed over all CPUs for integration: real work     1874.174 s, elapsed     2050.497 s
  Starting DFPT first order coefficients calculation
  End CPSCF iteration #     3                  :  max(cpu_time)    wall_clock(cpu1)
  | Time for this iteration                     :      102.131 s         102.830 s
  | first_order_DM                              :        0.419 s           0.421 s
  | first_order_density                         :       15.524 s          15.636 s
  | first_order_potential                       :        0.814 s           0.821 s
  | first_order_H                               :       84.967 s          85.618 s
  | Solution of Sternheimer eqns.               :        0.220 s           0.222 s
------------------------------------------------------------

--------------------------------------------------------------
          Begin CP-self-consistency iteration #    4

          Date     :  20251113, Time     :  172110.327
--------------------------------------------------------------
  Starting DFPT first order density matrix calculation
 FIRST_ORDER_DM_sparse
 0.7891526E-04
 0.6379830E-03
-0.5162589E-02
-0.2649482E-03
-0.1262155E-02
 0.4341898E-04
 0.2717638E-02
-0.1418946E-01
-0.7397526E-02
-0.4117867E-01
 0.9960321E-03
 0.1611888E-02
-0.5934549E-02
 0.2858785E-02
 0.2923332E-02
-0.1817036E-02
-0.6146472E-01
-0.6958984E-02
-0.1255039E+00
 0.1706200E-01
  Finished DFPT first order density matrix calculation

  CPSCF convergence accuracy:
  | Change of first_order_density_matrix     :  0.3065E+00
  Starting DFPT first order electron density calculation
  Integrating first_order_rho: batch-based integration.
  Time summed over all CPUs for integration: real work      347.787 s, elapsed      357.252 s
  Starting DFPT first order potential calculation
 FIRST_ORDER_TOTAL_RHO
-0.4032746E-02
-0.2247559E-02
 0.0000000E+00
 0.0000000E+00
-0.1670742E-02
-0.1005748E-02
-0.2625642E-02
-0.9293542E-02
 0.1563978E-03
-0.9440649E-02
-0.9219609E-02
 0.0000000E+00
 0.0000000E+00
 0.0000000E+00
 0.0000000E+00
 0.0000000E+00
 0.0000000E+00
 0.0000000E+00
 0.0000000E+00
 0.0000000E+00

  Evaluating partitioned Hartree potential by multipole expansion.
  | Original multipole sum: apparent total charge =  -0.106853E-12
  | Sum of charges compensated after spline to logarithmic grids =  -0.565748E-15
  | Analytical far-field extrapolation by fixed multipoles:
  | Hartree multipole sum: apparent total charge =  -0.105672E-12
  Summing up the Hartree potential.
  Time summed over all CPUs for potential: real work       19.347 s, elapsed       19.675 s
  | RMS delta_rho error from multipole expansion :   0.670201E-01

  Starting DFPT first order Hamiltonian calculation
  Integrating first-order-Hamiltonian matrix: batch-based integration.
  Time summed over all CPUs for integration: real work     1883.059 s, elapsed     2057.795 s
  Starting DFPT first order coefficients calculation
  End CPSCF iteration #     4                  :  max(cpu_time)    wall_clock(cpu1)
  | Time for this iteration                     :      101.796 s         102.503 s
  | first_order_DM                              :        0.415 s           0.417 s
  | first_order_density                         :       14.842 s          14.953 s
  | first_order_potential                       :        0.822 s           0.828 s
  | first_order_H                               :       85.266 s          85.921 s
  | Solution of Sternheimer eqns.               :        0.221 s           0.222 s
------------------------------------------------------------

--------------------------------------------------------------
          Begin CP-self-consistency iteration #    5

          Date     :  20251113, Time     :  172252.830
--------------------------------------------------------------
  Starting DFPT first order density matrix calculation
 FIRST_ORDER_DM_sparse
 0.7803431E-04
 0.6378187E-03
-0.5498705E-02
-0.2697300E-03
-0.1569779E-02
 0.1216767E-03
 0.2680881E-02
-0.1520093E-01
-0.8650307E-02
-0.4497783E-01
 0.9742904E-03
 0.1690388E-02
-0.6204264E-02
 0.2852314E-02
 0.2941301E-02
-0.1980733E-02
-0.6518019E-01
-0.6086754E-02
-0.1336215E+00
 0.1689879E-01
  Finished DFPT first order density matrix calculation

  CPSCF convergence accuracy:
  | Change of first_order_density_matrix     :  0.1734E+00
  Starting DFPT first order electron density calculation
  Integrating first_order_rho: batch-based integration.
  Time summed over all CPUs for integration: real work      340.395 s, elapsed      348.980 s
  Starting DFPT first order potential calculation
 FIRST_ORDER_TOTAL_RHO
-0.4034060E-02
-0.2228340E-02
 0.0000000E+00
 0.0000000E+00
-0.1656037E-02
-0.1027106E-02
-0.2624832E-02
-0.9295159E-02
 0.9371072E-04
-0.9463693E-02
-0.9271439E-02
 0.0000000E+00
 0.0000000E+00
 0.0000000E+00
 0.0000000E+00
 0.0000000E+00
 0.0000000E+00
 0.0000000E+00
 0.0000000E+00
 0.0000000E+00

  Evaluating partitioned Hartree potential by multipole expansion.
  | Original multipole sum: apparent total charge =  -0.111182E-12
  | Sum of charges compensated after spline to logarithmic grids =   0.538690E-14
  | Analytical far-field extrapolation by fixed multipoles:
  | Hartree multipole sum: apparent total charge =  -0.107246E-12
  Summing up the Hartree potential.
  Time summed over all CPUs for potential: real work       16.965 s, elapsed       17.242 s
  | RMS delta_rho error from multipole expansion :   0.669838E-01

  Starting DFPT first order Hamiltonian calculation
  Integrating first-order-Hamiltonian matrix: batch-based integration.
  Time summed over all CPUs for integration: real work     1897.401 s, elapsed     2071.445 s
  Starting DFPT first order coefficients calculation
  End CPSCF iteration #     5                  :  max(cpu_time)    wall_clock(cpu1)
  | Time for this iteration                     :      101.988 s         102.709 s
  | first_order_DM                              :        0.425 s           0.428 s
  | first_order_density                         :       14.505 s          14.619 s
  | first_order_potential                       :        0.721 s           0.726 s
  | first_order_H                               :       85.827 s          86.489 s
  | Solution of Sternheimer eqns.               :        0.221 s           0.223 s
------------------------------------------------------------

--------------------------------------------------------------
          Begin CP-self-consistency iteration #    6

          Date     :  20251113, Time     :  172435.540
--------------------------------------------------------------
  Starting DFPT first order density matrix calculation
 FIRST_ORDER_DM_sparse
 0.7693714E-04
 0.6368332E-03
-0.5718127E-02
-0.2700761E-03
-0.1716870E-02
 0.1809090E-03
 0.2656228E-02
-0.1568153E-01
-0.9362881E-02
-0.4664597E-01
 0.9584531E-03
 0.1817339E-02
-0.6315328E-02
 0.3051361E-02
 0.2909800E-02
-0.1989223E-02
-0.6574238E-01
-0.5806898E-02
-0.1356167E+00
 0.1642800E-01
  Finished DFPT first order density matrix calculation

  CPSCF convergence accuracy:
  | Change of first_order_density_matrix     :  0.8688E-01
  Starting DFPT first order electron density calculation
  Integrating first_order_rho: batch-based integration.
  Time summed over all CPUs for integration: real work      340.259 s, elapsed      348.633 s
  Starting DFPT first order potential calculation
 FIRST_ORDER_TOTAL_RHO
-0.3875241E-02
-0.2089129E-02
 0.0000000E+00
 0.0000000E+00
-0.1420889E-02
-0.7888559E-03
-0.2480651E-02
-0.8985374E-02
 0.3331611E-03
-0.9131908E-02
-0.8923720E-02
 0.0000000E+00
 0.0000000E+00
 0.0000000E+00
 0.0000000E+00
 0.0000000E+00
 0.0000000E+00
 0.0000000E+00
 0.0000000E+00
 0.0000000E+00

  Evaluating partitioned Hartree potential by multipole expansion.
  | Original multipole sum: apparent total charge =  -0.156245E-12
  | Sum of charges compensated after spline to logarithmic grids =  -0.910116E-15
  | Analytical far-field extrapolation by fixed multipoles:
  | Hartree multipole sum: apparent total charge =  -0.162542E-12
  Summing up the Hartree potential.
  Time summed over all CPUs for potential: real work       16.994 s, elapsed       17.273 s
  | RMS delta_rho error from multipole expansion :   0.668638E-01

  Starting DFPT first order Hamiltonian calculation
  Integrating first-order-Hamiltonian matrix: batch-based integration.
  Time summed over all CPUs for integration: real work     1889.177 s, elapsed     2064.534 s
  Starting DFPT first order coefficients calculation
  End CPSCF iteration #     6                  :  max(cpu_time)    wall_clock(cpu1)
  | Time for this iteration                     :      101.778 s         102.492 s
  | first_order_DM                              :        0.422 s           0.425 s
  | first_order_density                         :       14.503 s          14.613 s
  | first_order_potential                       :        0.722 s           0.727 s
  | first_order_H                               :       85.537 s          86.202 s
  | Solution of Sternheimer eqns.               :        0.221 s           0.223 s
------------------------------------------------------------

--------------------------------------------------------------
          Begin CP-self-consistency iteration #    7

          Date     :  20251113, Time     :  172618.032
--------------------------------------------------------------
  Starting DFPT first order density matrix calculation
 FIRST_ORDER_DM_sparse
 0.7634140E-04
 0.6323211E-03
-0.5799692E-02
-0.2622779E-03
-0.1541911E-02
 0.1634224E-03
 0.2651450E-02
-0.1567207E-01
-0.9123526E-02
-0.4641288E-01
 0.9571286E-03
 0.1846642E-02
-0.6368340E-02
 0.3070908E-02
 0.2897473E-02
-0.1946932E-02
-0.6496492E-01
-0.5735536E-02
-0.1345870E+00
 0.1598842E-01
  Finished DFPT first order density matrix calculation

  CPSCF convergence accuracy:
  | Change of first_order_density_matrix     :  0.2480E-01
  Starting DFPT first order electron density calculation
  Integrating first_order_rho: batch-based integration.
  Time summed over all CPUs for integration: real work      337.385 s, elapsed      345.914 s
  Starting DFPT first order potential calculation
 FIRST_ORDER_TOTAL_RHO
-0.3844345E-02
-0.2060401E-02
 0.0000000E+00
 0.0000000E+00
-0.1369465E-02
-0.7348286E-03
-0.2451582E-02
-0.8924249E-02
 0.3905852E-03
-0.9064913E-02
-0.8850992E-02
 0.0000000E+00
 0.0000000E+00
 0.0000000E+00
 0.0000000E+00
 0.0000000E+00
 0.0000000E+00
 0.0000000E+00
 0.0000000E+00
 0.0000000E+00

  Evaluating partitioned Hartree potential by multipole expansion.
  | Original multipole sum: apparent total charge =  -0.183204E-12
  | Sum of charges compensated after spline to logarithmic grids =   0.956852E-14
  | Analytical far-field extrapolation by fixed multipoles:
  | Hartree multipole sum: apparent total charge =  -0.174742E-12
  Summing up the Hartree potential.
  Time summed over all CPUs for potential: real work       16.776 s, elapsed       17.049 s
  | RMS delta_rho error from multipole expansion :   0.668615E-01

  Starting DFPT first order Hamiltonian calculation
  Integrating first-order-Hamiltonian matrix: batch-based integration.
  Time summed over all CPUs for integration: real work     1882.202 s, elapsed     2061.573 s
  Starting DFPT first order coefficients calculation
  End CPSCF iteration #     7                  :  max(cpu_time)    wall_clock(cpu1)
  | Time for this iteration                     :      101.638 s         102.335 s
  | first_order_DM                              :        0.420 s           0.423 s
  | first_order_density                         :       14.402 s          14.509 s
  | first_order_potential                       :        0.713 s           0.718 s
  | first_order_H                               :       85.425 s          86.076 s
  | Solution of Sternheimer eqns.               :        0.213 s           0.215 s
------------------------------------------------------------

--------------------------------------------------------------
          Begin CP-self-consistency iteration #    8

          Date     :  20251113, Time     :  172800.368
--------------------------------------------------------------
  Starting DFPT first order density matrix calculation
 FIRST_ORDER_DM_sparse
 0.7701593E-04
 0.6344794E-03
-0.5804526E-02
-0.2598553E-03
-0.1404109E-02
 0.1258949E-03
 0.2679136E-02
-0.1562111E-01
-0.8732641E-02
-0.4601766E-01
 0.9702778E-03
 0.1811298E-02
-0.6345709E-02
 0.3009883E-02
 0.2906909E-02
-0.1934564E-02
-0.6472041E-01
-0.5767282E-02
-0.1340913E+00
 0.1597174E-01
  Finished DFPT first order density matrix calculation

  CPSCF convergence accuracy:
  | Change of first_order_density_matrix     :  0.1208E-01
  Starting DFPT first order electron density calculation
  Integrating first_order_rho: batch-based integration.
  Time summed over all CPUs for integration: real work      336.934 s, elapsed      345.530 s
  Starting DFPT first order potential calculation
 FIRST_ORDER_TOTAL_RHO
-0.3842819E-02
-0.2055184E-02
 0.0000000E+00
 0.0000000E+00
-0.1361468E-02
-0.7292500E-03
-0.2448932E-02
-0.8922730E-02
 0.3943877E-03
-0.9064302E-02
-0.8850801E-02
 0.0000000E+00
 0.0000000E+00
 0.0000000E+00
 0.0000000E+00
 0.0000000E+00
 0.0000000E+00
 0.0000000E+00
 0.0000000E+00
 0.0000000E+00

  Evaluating partitioned Hartree potential by multipole expansion.
  | Original multipole sum: apparent total charge =  -0.133615E-12
  | Sum of charges compensated after spline to logarithmic grids =  -0.137747E-14
  | Analytical far-field extrapolation by fixed multipoles:
  | Hartree multipole sum: apparent total charge =  -0.134599E-12
  Summing up the Hartree potential.
  Time summed over all CPUs for potential: real work       17.145 s, elapsed       17.427 s
  | RMS delta_rho error from multipole expansion :   0.668768E-01

  Starting DFPT first order Hamiltonian calculation
  Integrating first-order-Hamiltonian matrix: batch-based integration.
  Time summed over all CPUs for integration: real work     1914.283 s, elapsed     2078.300 s
  Starting DFPT first order coefficients calculation
  End CPSCF iteration #     8                  :  max(cpu_time)    wall_clock(cpu1)
  | Time for this iteration                     :      102.438 s         103.129 s
  | first_order_DM                              :        0.403 s           0.405 s
  | first_order_density                         :       14.396 s          14.502 s
  | first_order_potential                       :        0.729 s           0.734 s
  | first_order_H                               :       86.120 s          86.775 s
  | Solution of Sternheimer eqns.               :        0.214 s           0.216 s
------------------------------------------------------------

--------------------------------------------------------------
          Begin CP-self-consistency iteration #    9

          Date     :  20251113, Time     :  172943.497
--------------------------------------------------------------
  Starting DFPT first order density matrix calculation
 FIRST_ORDER_DM_sparse
 0.7780957E-04
 0.6383217E-03
-0.5839038E-02
-0.2574416E-03
-0.1298442E-02
 0.6893484E-04
 0.2713026E-02
-0.1567249E-01
-0.8398930E-02
-0.4590015E-01
 0.9846380E-03
 0.1782479E-02
-0.6299857E-02
 0.2980479E-02
 0.2911730E-02
-0.1930816E-02
-0.6468206E-01
-0.5790985E-02
-0.1339669E+00
 0.1601704E-01
  Finished DFPT first order density matrix calculation

  CPSCF convergence accuracy:
  | Change of first_order_density_matrix     :  0.1436E-02
  Starting DFPT first order electron density calculation
  Integrating first_order_rho: batch-based integration.
  Time summed over all CPUs for integration: real work      341.483 s, elapsed      350.004 s
  Starting DFPT first order potential calculation
 FIRST_ORDER_TOTAL_RHO
-0.3844248E-02
-0.2056101E-02
 0.0000000E+00
 0.0000000E+00
-0.1365099E-02
-0.7339066E-03
-0.2450187E-02
-0.8927587E-02
 0.3886531E-03
-0.9070038E-02
-0.8857299E-02
 0.0000000E+00
 0.0000000E+00
 0.0000000E+00
 0.0000000E+00
 0.0000000E+00
 0.0000000E+00
 0.0000000E+00
 0.0000000E+00
 0.0000000E+00

  Evaluating partitioned Hartree potential by multipole expansion.
  | Original multipole sum: apparent total charge =  -0.110591E-12
  | Sum of charges compensated after spline to logarithmic grids =   0.467357E-14
  | Analytical far-field extrapolation by fixed multipoles:
  | Hartree multipole sum: apparent total charge =  -0.102327E-12
  Summing up the Hartree potential.
  Time summed over all CPUs for potential: real work       17.066 s, elapsed       17.345 s
  | RMS delta_rho error from multipole expansion :   0.668771E-01

  Starting DFPT first order Hamiltonian calculation
  Integrating first-order-Hamiltonian matrix: batch-based integration.
  Time summed over all CPUs for integration: real work     1912.099 s, elapsed     2078.603 s
  Starting DFPT first order coefficients calculation
  End CPSCF iteration #     9                  :  max(cpu_time)    wall_clock(cpu1)
  | Time for this iteration                     :      102.653 s         103.331 s
  | first_order_DM                              :        0.405 s           0.407 s
  | first_order_density                         :       14.582 s          14.688 s
  | first_order_potential                       :        0.725 s           0.730 s
  | first_order_H                               :       86.137 s          86.789 s
  | Solution of Sternheimer eqns.               :        0.221 s           0.223 s
------------------------------------------------------------

--------------------------------------------------------------
          Begin CP-self-consistency iteration #   10

          Date     :  20251113, Time     :  173126.829
--------------------------------------------------------------
  Starting DFPT first order density matrix calculation
 FIRST_ORDER_DM_sparse
 0.7789308E-04
 0.6387866E-03
-0.5845409E-02
-0.2570524E-03
-0.1286010E-02
 0.6156636E-04
 0.2716464E-02
-0.1568067E-01
-0.8363252E-02
-0.4588891E-01
 0.9858889E-03
 0.1781289E-02
-0.6294075E-02
 0.2981920E-02
 0.2911373E-02
-0.1931191E-02
-0.6468699E-01
-0.5790275E-02
-0.1339710E+00
 0.1602082E-01
  Finished DFPT first order density matrix calculation

  CPSCF convergence accuracy:
  | Change of first_order_density_matrix     :  0.1017E-02
  Starting DFPT first order electron density calculation
  Integrating first_order_rho: batch-based integration.
  Time summed over all CPUs for integration: real work      341.483 s, elapsed      350.062 s
  Starting DFPT first order potential calculation
 FIRST_ORDER_TOTAL_RHO
-0.3846428E-02
-0.2057801E-02
 0.0000000E+00
 0.0000000E+00
-0.1371145E-02
-0.7413762E-03
-0.2452236E-02
-0.8934497E-02
 0.3796552E-03
-0.9078032E-02
-0.8866208E-02
 0.0000000E+00
 0.0000000E+00
 0.0000000E+00
 0.0000000E+00
 0.0000000E+00
 0.0000000E+00
 0.0000000E+00
 0.0000000E+00
 0.0000000E+00

  Evaluating partitioned Hartree potential by multipole expansion.
  | Original multipole sum: apparent total charge =  -0.200324E-12
  | Sum of charges compensated after spline to logarithmic grids =   0.243518E-14
  | Analytical far-field extrapolation by fixed multipoles:
  | Hartree multipole sum: apparent total charge =  -0.194617E-12
  Summing up the Hartree potential.
  Time summed over all CPUs for potential: real work       17.021 s, elapsed       17.300 s
  | RMS delta_rho error from multipole expansion :   0.668779E-01

  Starting DFPT first order Hamiltonian calculation
  Integrating first-order-Hamiltonian matrix: batch-based integration.
  Time summed over all CPUs for integration: real work     1898.176 s, elapsed     2071.058 s
  Starting DFPT first order coefficients calculation
  End CPSCF iteration #    10                  :  max(cpu_time)    wall_clock(cpu1)
  | Time for this iteration                     :      102.354 s         103.037 s
  | first_order_DM                              :        0.424 s           0.426 s
  | first_order_density                         :       14.586 s          14.691 s
  | first_order_potential                       :        0.724 s           0.728 s
  | first_order_H                               :       85.816 s          86.474 s
  | Solution of Sternheimer eqns.               :        0.222 s           0.224 s
------------------------------------------------------------

--------------------------------------------------------------
          Begin CP-self-consistency iteration #   11

          Date     :  20251113, Time     :  173309.867
--------------------------------------------------------------
  Starting DFPT first order density matrix calculation
 FIRST_ORDER_DM_sparse
 0.7797945E-04
 0.6392820E-03
-0.5856502E-02
-0.2564860E-03
-0.1270680E-02
 0.5255618E-04
 0.2719907E-02
-0.1569627E-01
-0.8323917E-02
-0.4589049E-01
 0.9869940E-03
 0.1781191E-02
-0.6287675E-02
 0.2986188E-02
 0.2910565E-02
-0.1932308E-02
-0.6470502E-01
-0.5786791E-02
-0.1340017E+00
 0.1602481E-01
  Finished DFPT first order density matrix calculation

  CPSCF convergence accuracy:
  | Change of first_order_density_matrix     :  0.3326E-03
  Starting DFPT first order electron density calculation
  Integrating first_order_rho: batch-based integration.
  Time summed over all CPUs for integration: real work      341.642 s, elapsed      350.311 s
  Starting DFPT first order potential calculation
 FIRST_ORDER_TOTAL_RHO
-0.3846649E-02
-0.2058000E-02
 0.0000000E+00
 0.0000000E+00
-0.1371963E-02
-0.7424021E-03
-0.2452486E-02
-0.8934970E-02
 0.3784213E-03
-0.9078494E-02
-0.8866620E-02
 0.0000000E+00
 0.0000000E+00
 0.0000000E+00
 0.0000000E+00
 0.0000000E+00
 0.0000000E+00
 0.0000000E+00
 0.0000000E+00
 0.0000000E+00

  Evaluating partitioned Hartree potential by multipole expansion.
  | Original multipole sum: apparent total charge =  -0.158016E-12
  | Sum of charges compensated after spline to logarithmic grids =   0.418162E-15
  | Analytical far-field extrapolation by fixed multipoles:
  | Hartree multipole sum: apparent total charge =  -0.153687E-12
  Summing up the Hartree potential.
  Time summed over all CPUs for potential: real work       17.082 s, elapsed       17.364 s
  | RMS delta_rho error from multipole expansion :   0.668792E-01

  Starting DFPT first order Hamiltonian calculation
  Integrating first-order-Hamiltonian matrix: batch-based integration.
  Time summed over all CPUs for integration: real work     1892.452 s, elapsed     2062.979 s
  Starting DFPT first order coefficients calculation

  CP-self-consistency cycle converged.

  End CPSCF iteration #    11                  :  max(cpu_time)    wall_clock(cpu1)
  | Time for this iteration                     :      102.051 s         102.726 s
  | first_order_DM                              :        0.424 s           0.427 s
  | first_order_density                         :       14.595 s          14.702 s
  | first_order_potential                       :        0.726 s           0.731 s
  | first_order_H                               :       85.491 s          86.135 s
  | Solution of Sternheimer eqns.               :        0.234 s           0.236 s
------------------------------------------------------------
  Starting DFPT reinitialization


===========================================================================
                             CPSCF cycle

  CPSCF for electric field response
  CPSCF working for i_q_point =    0
  Number of CPSCF atoms:      0
  Number of CPSCF coordinates:      1
  Pulay mixer will be used
  Mixing parameter for CPSCF:    0.2000E+00
  Convergence accuracy for CPSCF:    0.1000E-02
  DFPT smearing width for fractional occupation / eV:    0.0000E+00

==========================================================================

Calculating first order coefficient matrix for initial guess
  Starting DFPT first order coefficients calculation

--------------------------------------------------------------
          Begin CP-self-consistency iteration #    1

          Date     :  20251113, Time     :  173452.860
--------------------------------------------------------------
  Starting DFPT first order density matrix calculation
 FIRST_ORDER_DM_sparse
-0.8152617E-04
-0.1580695E-02
-0.6962339E-02
 0.2154620E-02
 0.3943260E-01
-0.1876873E-01
-0.1995773E-02
 0.9894621E-02
 0.9984310E-01
 0.1064589E+00
 0.3394435E-03
-0.6129392E-02
 0.1286123E-01
-0.6051287E-02
-0.9930626E-03
-0.2252341E-01
-0.6802124E+00
 0.1260969E-01
-0.1279866E+01
 0.1966117E+00
  Finished DFPT first order density matrix calculation

  CPSCF convergence accuracy:
  | Change of first_order_density_matrix     :  0.0000E+00
  Starting DFPT first order electron density calculation
  Integrating first_order_rho: batch-based integration.
  Time summed over all CPUs for integration: real work      357.313 s, elapsed      365.837 s
  Starting DFPT first order potential calculation
 FIRST_ORDER_TOTAL_RHO
 0.2820149E-01
 0.2041960E-01
 0.0000000E+00
 0.0000000E+00
 0.3562581E-01
 0.4172446E-01
 0.2450943E-01
 0.5847895E-01
 0.4853127E-01
 0.6841452E-01
 0.7876769E-01
 0.0000000E+00
 0.0000000E+00
 0.0000000E+00
 0.0000000E+00
 0.0000000E+00
 0.0000000E+00
 0.0000000E+00
 0.0000000E+00
 0.0000000E+00

  Evaluating partitioned Hartree potential by multipole expansion.
  | Original multipole sum: apparent total charge =   0.581687E-12
  | Sum of charges compensated after spline to logarithmic grids =   0.122989E-14
  | Analytical far-field extrapolation by fixed multipoles:
  | Hartree multipole sum: apparent total charge =   0.576965E-12
  Summing up the Hartree potential.
  Time summed over all CPUs for potential: real work       17.087 s, elapsed       17.371 s
  | RMS delta_rho error from multipole expansion :   0.940298E-01

  Starting DFPT first order Hamiltonian calculation
  Integrating first-order-Hamiltonian matrix: batch-based integration.
  Time summed over all CPUs for integration: real work     1893.707 s, elapsed     2057.506 s
  Starting DFPT first order coefficients calculation
  End CPSCF iteration #     1                  :  max(cpu_time)    wall_clock(cpu1)
  | Time for this iteration                     :      101.996 s         102.671 s
  | first_order_DM                              :        0.468 s           0.472 s
  | first_order_density                         :       15.180 s          15.294 s
  | first_order_potential                       :        0.726 s           0.732 s
  | first_order_H                               :       85.271 s          85.908 s
  | Solution of Sternheimer eqns.               :        0.241 s           0.243 s
------------------------------------------------------------

--------------------------------------------------------------
          Begin CP-self-consistency iteration #    2

          Date     :  20251113, Time     :  173635.532
--------------------------------------------------------------
  Starting DFPT first order density matrix calculation
 FIRST_ORDER_DM_sparse
-0.1672592E-03
-0.2500425E-02
-0.2741665E-01
 0.3479366E-02
 0.5794690E-01
-0.2895596E-01
-0.2913210E-02
-0.3631034E-01
 0.1329020E+00
-0.8743457E-02
 0.6177005E-03
-0.1487365E-01
 0.1435246E-01
-0.2386743E-01
 0.1489156E-02
-0.3598932E-01
-0.1015600E+01
 0.6281609E-01
-0.1963983E+01
 0.2451742E+00
  Finished DFPT first order density matrix calculation

  CPSCF convergence accuracy:
  | Change of first_order_density_matrix     :  0.7646E+01
  Starting DFPT first order electron density calculation
  Integrating first_order_rho: batch-based integration.
  Time summed over all CPUs for integration: real work      368.533 s, elapsed      377.266 s
  Starting DFPT first order potential calculation
 FIRST_ORDER_TOTAL_RHO
 0.1613105E-01
 0.1217290E-01
 0.0000000E+00
 0.0000000E+00
 0.2120830E-01
 0.2498672E-01
 0.1451190E-01
 0.3115285E-01
 0.2936385E-01
 0.3668966E-01
 0.4260803E-01
 0.0000000E+00
 0.0000000E+00
 0.0000000E+00
 0.0000000E+00
 0.0000000E+00
 0.0000000E+00
 0.0000000E+00
 0.0000000E+00
 0.0000000E+00

  Evaluating partitioned Hartree potential by multipole expansion.
  | Original multipole sum: apparent total charge =   0.293992E-12
  | Sum of charges compensated after spline to logarithmic grids =  -0.467357E-14
  | Analytical far-field extrapolation by fixed multipoles:
  | Hartree multipole sum: apparent total charge =   0.292221E-12
  Summing up the Hartree potential.
  Time summed over all CPUs for potential: real work       16.896 s, elapsed       17.176 s
  | RMS delta_rho error from multipole expansion :   0.497746E-01

  Starting DFPT first order Hamiltonian calculation
  Integrating first-order-Hamiltonian matrix: batch-based integration.
  Time summed over all CPUs for integration: real work     1888.796 s, elapsed     2051.114 s
  Starting DFPT first order coefficients calculation
  End CPSCF iteration #     2                  :  max(cpu_time)    wall_clock(cpu1)
  | Time for this iteration                     :      102.245 s         102.925 s
  | first_order_DM                              :        0.460 s           0.463 s
  | first_order_density                         :       15.658 s          15.770 s
  | first_order_potential                       :        0.718 s           0.723 s
  | first_order_H                               :       85.001 s          85.645 s
  | Solution of Sternheimer eqns.               :        0.247 s           0.249 s
------------------------------------------------------------

--------------------------------------------------------------
          Begin CP-self-consistency iteration #    3

          Date     :  20251113, Time     :  173818.457
--------------------------------------------------------------
  Starting DFPT first order density matrix calculation
 FIRST_ORDER_DM_sparse
-0.1033645E-03
-0.1977062E-02
-0.1354398E-01
 0.2925271E-02
 0.5536774E-01
-0.2433859E-01
-0.1990851E-02
 0.1081074E-02
 0.1321541E+00
 0.9666265E-01
 0.6118130E-03
-0.1087051E-01
 0.1178909E-01
-0.1705735E-01
 0.5884804E-03
-0.3007182E-01
-0.8573902E+00
 0.4623467E-01
-0.1651091E+01
 0.2122612E+00
  Finished DFPT first order density matrix calculation

  CPSCF convergence accuracy:
  | Change of first_order_density_matrix     :  0.1331E+01
  Starting DFPT first order electron density calculation
  Integrating first_order_rho: batch-based integration.
  Time summed over all CPUs for integration: real work      376.668 s, elapsed      385.556 s
  Starting DFPT first order potential calculation
 FIRST_ORDER_TOTAL_RHO
 0.2790525E-01
 0.2069064E-01
 0.0000000E+00
 0.0000000E+00
 0.3389112E-01
 0.3921437E-01
 0.2457354E-01
 0.5334079E-01
 0.4515851E-01
 0.6171668E-01
 0.7046777E-01
 0.0000000E+00
 0.0000000E+00
 0.0000000E+00
 0.0000000E+00
 0.0000000E+00
 0.0000000E+00
 0.0000000E+00
 0.0000000E+00
 0.0000000E+00

  Evaluating partitioned Hartree potential by multipole expansion.
  | Original multipole sum: apparent total charge =   0.429378E-12
  | Sum of charges compensated after spline to logarithmic grids =   0.727171E-15
  | Analytical far-field extrapolation by fixed multipoles:
  | Hartree multipole sum: apparent total charge =   0.434494E-12
  Summing up the Hartree potential.
  Time summed over all CPUs for potential: real work       17.144 s, elapsed       17.430 s
  | RMS delta_rho error from multipole expansion :   0.607468E-01

  Starting DFPT first order Hamiltonian calculation
  Integrating first-order-Hamiltonian matrix: batch-based integration.
  Time summed over all CPUs for integration: real work     1893.549 s, elapsed     2054.364 s
  Starting DFPT first order coefficients calculation
  End CPSCF iteration #     3                  :  max(cpu_time)    wall_clock(cpu1)
  | Time for this iteration                     :      102.772 s         103.454 s
  | first_order_DM                              :        0.481 s           0.483 s
  | first_order_density                         :       16.007 s          16.124 s
  | first_order_potential                       :        0.729 s           0.734 s
  | first_order_H                               :       85.138 s          85.778 s
  | Solution of Sternheimer eqns.               :        0.222 s           0.225 s
------------------------------------------------------------

--------------------------------------------------------------
          Begin CP-self-consistency iteration #    4

          Date     :  20251113, Time     :  174001.913
--------------------------------------------------------------
  Starting DFPT first order density matrix calculation
 FIRST_ORDER_DM_sparse
-0.8908954E-04
-0.1873403E-02
-0.1259370E-01
 0.2954626E-02
 0.5977611E-01
-0.2382261E-01
-0.1221969E-02
 0.6528944E-02
 0.1420632E+00
 0.1166788E+00
 0.9208419E-03
-0.1165028E-01
 0.1128790E-01
-0.1859252E-01
 0.1317219E-02
-0.3029838E-01
-0.8536881E+00
 0.5944367E-01
-0.1665094E+01
 0.1937908E+00
  Finished DFPT first order density matrix calculation

  CPSCF convergence accuracy:
  | Change of first_order_density_matrix     :  0.1084E+01
  Starting DFPT first order electron density calculation
  Integrating first_order_rho: batch-based integration.
  Time summed over all CPUs for integration: real work      378.539 s, elapsed      387.312 s
  Starting DFPT first order potential calculation
 FIRST_ORDER_TOTAL_RHO
 0.2899723E-01
 0.2152572E-01
 0.0000000E+00
 0.0000000E+00
 0.3499524E-01
 0.4044765E-01
 0.2554294E-01
 0.5508784E-01
 0.4652212E-01
 0.6366811E-01
 0.7262196E-01
 0.0000000E+00
 0.0000000E+00
 0.0000000E+00
 0.0000000E+00
 0.0000000E+00
 0.0000000E+00
 0.0000000E+00
 0.0000000E+00
 0.0000000E+00

  Evaluating partitioned Hartree potential by multipole expansion.
  | Original multipole sum: apparent total charge =   0.467947E-12
  | Sum of charges compensated after spline to logarithmic grids =   0.596495E-14
  | Analytical far-field extrapolation by fixed multipoles:
  | Hartree multipole sum: apparent total charge =   0.475032E-12
  Summing up the Hartree potential.
  Time summed over all CPUs for potential: real work       17.100 s, elapsed       17.385 s
  | RMS delta_rho error from multipole expansion :   0.632717E-01

  Starting DFPT first order Hamiltonian calculation
  Integrating first-order-Hamiltonian matrix: batch-based integration.
  Time summed over all CPUs for integration: real work     1894.855 s, elapsed     2057.502 s
  Starting DFPT first order coefficients calculation
  End CPSCF iteration #     4                  :  max(cpu_time)    wall_clock(cpu1)
  | Time for this iteration                     :      102.975 s         103.657 s
  | first_order_DM                              :        0.428 s           0.432 s
  | first_order_density                         :       16.092 s          16.207 s
  | first_order_potential                       :        0.727 s           0.732 s
  | first_order_H                               :       85.271 s          85.910 s
  | Solution of Sternheimer eqns.               :        0.216 s           0.218 s
------------------------------------------------------------

--------------------------------------------------------------
          Begin CP-self-consistency iteration #    5

          Date     :  20251113, Time     :  174145.570
--------------------------------------------------------------
  Starting DFPT first order density matrix calculation
 FIRST_ORDER_DM_sparse
-0.8337240E-04
-0.1844984E-02
-0.1301061E-01
 0.2987149E-02
 0.6068845E-01
-0.2445611E-01
-0.9665254E-03
 0.5726299E-02
 0.1449104E+00
 0.1165682E+00
 0.1023017E-02
-0.1198098E-01
 0.1182360E-01
-0.1902464E-01
 0.1290282E-02
-0.3066793E-01
-0.8645207E+00
 0.6037044E-01
-0.1687670E+01
 0.1958013E+00
  Finished DFPT first order density matrix calculation

  CPSCF convergence accuracy:
  | Change of first_order_density_matrix     :  0.5871E+00
  Starting DFPT first order electron density calculation
  Integrating first_order_rho: batch-based integration.
  Time summed over all CPUs for integration: real work      375.665 s, elapsed      384.572 s
  Starting DFPT first order potential calculation
 FIRST_ORDER_TOTAL_RHO
 0.2960310E-01
 0.2204731E-01
 0.0000000E+00
 0.0000000E+00
 0.3543229E-01
 0.4090081E-01
 0.2612225E-01
 0.5555193E-01
 0.4698672E-01
 0.6411590E-01
 0.7304819E-01
 0.0000000E+00
 0.0000000E+00
 0.0000000E+00
 0.0000000E+00
 0.0000000E+00
 0.0000000E+00
 0.0000000E+00
 0.0000000E+00
 0.0000000E+00

  Evaluating partitioned Hartree potential by multipole expansion.
  | Original multipole sum: apparent total charge =   0.508091E-12
  | Sum of charges compensated after spline to logarithmic grids =   0.154966E-14
  | Analytical far-field extrapolation by fixed multipoles:
  | Hartree multipole sum: apparent total charge =   0.509665E-12
  Summing up the Hartree potential.
  Time summed over all CPUs for potential: real work       17.136 s, elapsed       17.419 s
  | RMS delta_rho error from multipole expansion :   0.640957E-01

  Starting DFPT first order Hamiltonian calculation
  Integrating first-order-Hamiltonian matrix: batch-based integration.
  Time summed over all CPUs for integration: real work     1892.814 s, elapsed     2053.324 s
  Starting DFPT first order coefficients calculation
  End CPSCF iteration #     5                  :  max(cpu_time)    wall_clock(cpu1)
  | Time for this iteration                     :      102.734 s         103.424 s
  | first_order_DM                              :        0.411 s           0.413 s
  | first_order_density                         :       15.990 s          16.103 s
  | first_order_potential                       :        0.728 s           0.733 s
  | first_order_H                               :       85.089 s          85.736 s
  | Solution of Sternheimer eqns.               :        0.214 s           0.215 s
------------------------------------------------------------

--------------------------------------------------------------
          Begin CP-self-consistency iteration #    6

          Date     :  20251113, Time     :  174328.996
--------------------------------------------------------------
  Starting DFPT first order density matrix calculation
 FIRST_ORDER_DM_sparse
-0.7009997E-04
-0.1756505E-02
-0.1321577E-01
 0.3008944E-02
 0.6159506E-01
-0.2542604E-01
-0.4553614E-03
 0.5393078E-02
 0.1486653E+00
 0.1191174E+00
 0.1192506E-02
-0.1219098E-01
 0.1275098E-01
-0.1895288E-01
 0.1147650E-02
-0.3074047E-01
-0.8685269E+00
 0.6024573E-01
-0.1696839E+01
 0.1968177E+00
  Finished DFPT first order density matrix calculation

  CPSCF convergence accuracy:
  | Change of first_order_density_matrix     :  0.1163E+00
  Starting DFPT first order electron density calculation
  Integrating first_order_rho: batch-based integration.
  Time summed over all CPUs for integration: real work      368.321 s, elapsed      377.399 s
  Starting DFPT first order potential calculation
 FIRST_ORDER_TOTAL_RHO
 0.2993383E-01
 0.2233627E-01
 0.0000000E+00
 0.0000000E+00
 0.3552675E-01
 0.4096813E-01
 0.2643703E-01
 0.5563568E-01
 0.4702099E-01
 0.6414134E-01
 0.7301105E-01
 0.0000000E+00
 0.0000000E+00
 0.0000000E+00
 0.0000000E+00
 0.0000000E+00
 0.0000000E+00
 0.0000000E+00
 0.0000000E+00
 0.0000000E+00

  Evaluating partitioned Hartree potential by multipole expansion.
  | Original multipole sum: apparent total charge =   0.466767E-12
  | Sum of charges compensated after spline to logarithmic grids =   0.212770E-14
  | Analytical far-field extrapolation by fixed multipoles:
  | Hartree multipole sum: apparent total charge =   0.463225E-12
  Summing up the Hartree potential.
  Time summed over all CPUs for potential: real work       17.090 s, elapsed       17.374 s
  | RMS delta_rho error from multipole expansion :   0.643176E-01

  Starting DFPT first order Hamiltonian calculation
  Integrating first-order-Hamiltonian matrix: batch-based integration.
  Time summed over all CPUs for integration: real work     1896.792 s, elapsed     2057.000 s
  Starting DFPT first order coefficients calculation
  End CPSCF iteration #     6                  :  max(cpu_time)    wall_clock(cpu1)
  | Time for this iteration                     :      102.661 s         103.355 s
  | first_order_DM                              :        0.407 s           0.410 s
  | first_order_density                         :       15.702 s          15.813 s
  | first_order_potential                       :        0.727 s           0.731 s
  | first_order_H                               :       85.247 s          85.887 s
  | Solution of Sternheimer eqns.               :        0.212 s           0.213 s
------------------------------------------------------------

--------------------------------------------------------------
          Begin CP-self-consistency iteration #    7

          Date     :  20251113, Time     :  174512.352
--------------------------------------------------------------
  Starting DFPT first order density matrix calculation
 FIRST_ORDER_DM_sparse
-0.5773011E-04
-0.1664562E-02
-0.1351871E-01
 0.3022635E-02
 0.6222342E-01
-0.2626128E-01
 0.3423777E-04
 0.4772975E-02
 0.1514735E+00
 0.1204205E+00
 0.1344301E-02
-0.1224586E-01
 0.1353839E-01
-0.1855112E-01
 0.1037105E-02
-0.3052362E-01
-0.8641578E+00
 0.5993967E-01
-0.1689704E+01
 0.1956174E+00
  Finished DFPT first order density matrix calculation

  CPSCF convergence accuracy:
  | Change of first_order_density_matrix     :  0.5013E-01
  Starting DFPT first order electron density calculation
  Integrating first_order_rho: batch-based integration.
  Time summed over all CPUs for integration: real work      373.791 s, elapsed      382.967 s
  Starting DFPT first order potential calculation
 FIRST_ORDER_TOTAL_RHO
 0.2978261E-01
 0.2223234E-01
 0.0000000E+00
 0.0000000E+00
 0.3519492E-01
 0.4057628E-01
 0.2630766E-01
 0.5514492E-01
 0.4656493E-01
 0.6356174E-01
 0.7234374E-01
 0.0000000E+00
 0.0000000E+00
 0.0000000E+00
 0.0000000E+00
 0.0000000E+00
 0.0000000E+00
 0.0000000E+00
 0.0000000E+00
 0.0000000E+00

  Evaluating partitioned Hartree potential by multipole expansion.
  | Original multipole sum: apparent total charge =   0.455747E-12
  | Sum of charges compensated after spline to logarithmic grids =   0.472277E-14
  | Analytical far-field extrapolation by fixed multipoles:
  | Hartree multipole sum: apparent total charge =   0.459683E-12
  Summing up the Hartree potential.
  Time summed over all CPUs for potential: real work       17.153 s, elapsed       17.443 s
  | RMS delta_rho error from multipole expansion :   0.641694E-01

  Starting DFPT first order Hamiltonian calculation
  Integrating first-order-Hamiltonian matrix: batch-based integration.
  Time summed over all CPUs for integration: real work     1894.244 s, elapsed     2054.757 s
  Starting DFPT first order coefficients calculation
  End CPSCF iteration #     7                  :  max(cpu_time)    wall_clock(cpu1)
  | Time for this iteration                     :      102.912 s         103.600 s
  | first_order_DM                              :        0.406 s           0.409 s
  | first_order_density                         :       15.944 s          16.054 s
  | first_order_potential                       :        0.730 s           0.735 s
  | first_order_H                               :       85.151 s          85.795 s
  | Solution of Sternheimer eqns.               :        0.214 s           0.216 s
------------------------------------------------------------

--------------------------------------------------------------
          Begin CP-self-consistency iteration #    8

          Date     :  20251113, Time     :  174655.953
--------------------------------------------------------------
  Starting DFPT first order density matrix calculation
 FIRST_ORDER_DM_sparse
-0.5447488E-04
-0.1644643E-02
-0.1384546E-01
 0.3036037E-02
 0.6269254E-01
-0.2650435E-01
 0.1610500E-03
 0.4292894E-02
 0.1526413E+00
 0.1202231E+00
 0.1385999E-02
-0.1226688E-01
 0.1366586E-01
-0.1849624E-01
 0.1037152E-02
-0.3044531E-01
-0.8622039E+00
 0.5979854E-01
-0.1686150E+01
 0.1951458E+00
  Finished DFPT first order density matrix calculation

  CPSCF convergence accuracy:
  | Change of first_order_density_matrix     :  0.3094E-01
  Starting DFPT first order electron density calculation
  Integrating first_order_rho: batch-based integration.
  Time summed over all CPUs for integration: real work      369.874 s, elapsed      379.242 s
  Starting DFPT first order potential calculation
 FIRST_ORDER_TOTAL_RHO
 0.2978647E-01
 0.2224114E-01
 0.0000000E+00
 0.0000000E+00
 0.3516679E-01
 0.4053919E-01
 0.2631481E-01
 0.5508254E-01
 0.4651822E-01
 0.6348280E-01
 0.7224873E-01
 0.0000000E+00
 0.0000000E+00
 0.0000000E+00
 0.0000000E+00
 0.0000000E+00
 0.0000000E+00
 0.0000000E+00
 0.0000000E+00
 0.0000000E+00

  Evaluating partitioned Hartree potential by multipole expansion.
  | Original multipole sum: apparent total charge =   0.452992E-12
  | Sum of charges compensated after spline to logarithmic grids =   0.147586E-15
  | Analytical far-field extrapolation by fixed multipoles:
  | Hartree multipole sum: apparent total charge =   0.456928E-12
  Summing up the Hartree potential.
  Time summed over all CPUs for potential: real work       17.918 s, elapsed       18.213 s
  | RMS delta_rho error from multipole expansion :   0.642253E-01

  Starting DFPT first order Hamiltonian calculation
  Integrating first-order-Hamiltonian matrix: batch-based integration.
  Time summed over all CPUs for integration: real work     1894.246 s, elapsed     2056.326 s
  Starting DFPT first order coefficients calculation
  End CPSCF iteration #     8                  :  max(cpu_time)    wall_clock(cpu1)
  | Time for this iteration                     :      102.971 s         103.670 s
  | first_order_DM                              :        0.406 s           0.409 s
  | first_order_density                         :       15.801 s          15.908 s
  | first_order_potential                       :        0.761 s           0.767 s
  | first_order_H                               :       85.207 s          85.861 s
  | Solution of Sternheimer eqns.               :        0.220 s           0.222 s
------------------------------------------------------------

--------------------------------------------------------------
          Begin CP-self-consistency iteration #    9

          Date     :  20251113, Time     :  174839.624
--------------------------------------------------------------
  Starting DFPT first order density matrix calculation
 FIRST_ORDER_DM_sparse
-0.5371850E-04
-0.1642592E-02
-0.1396249E-01
 0.3044512E-02
 0.6293955E-01
-0.2660215E-01
 0.1923789E-03
 0.4172554E-02
 0.1532306E+00
 0.1203718E+00
 0.1398558E-02
-0.1229658E-01
 0.1370996E-01
-0.1853448E-01
 0.1037451E-02
-0.3046273E-01
-0.8626817E+00
 0.5978970E-01
-0.1687077E+01
 0.1953073E+00
  Finished DFPT first order density matrix calculation

  CPSCF convergence accuracy:
  | Change of first_order_density_matrix     :  0.4620E-02
  Starting DFPT first order electron density calculation
  Integrating first_order_rho: batch-based integration.
  Time summed over all CPUs for integration: real work      370.878 s, elapsed      380.242 s
  Starting DFPT first order potential calculation
 FIRST_ORDER_TOTAL_RHO
 0.2979768E-01
 0.2225053E-01
 0.0000000E+00
 0.0000000E+00
 0.3517963E-01
 0.4055222E-01
 0.2632516E-01
 0.5509460E-01
 0.4653158E-01
 0.6349458E-01
 0.7226067E-01
 0.0000000E+00
 0.0000000E+00
 0.0000000E+00
 0.0000000E+00
 0.0000000E+00
 0.0000000E+00
 0.0000000E+00
 0.0000000E+00
 0.0000000E+00

  Evaluating partitioned Hartree potential by multipole expansion.
  | Original multipole sum: apparent total charge =   0.422688E-12
  | Sum of charges compensated after spline to logarithmic grids =  -0.115609E-14
  | Analytical far-field extrapolation by fixed multipoles:
  | Hartree multipole sum: apparent total charge =   0.418752E-12
  Summing up the Hartree potential.
  Time summed over all CPUs for potential: real work       18.490 s, elapsed       18.799 s
  | RMS delta_rho error from multipole expansion :   0.642391E-01

  Starting DFPT first order Hamiltonian calculation
  Integrating first-order-Hamiltonian matrix: batch-based integration.
  Time summed over all CPUs for integration: real work     1901.222 s, elapsed     2061.364 s
  Starting DFPT first order coefficients calculation
  End CPSCF iteration #     9                  :  max(cpu_time)    wall_clock(cpu1)
  | Time for this iteration                     :      103.266 s         103.959 s
  | first_order_DM                              :        0.419 s           0.424 s
  | first_order_density                         :       15.841 s          15.949 s
  | first_order_potential                       :        0.786 s           0.792 s
  | first_order_H                               :       85.424 s          86.071 s
  | Solution of Sternheimer eqns.               :        0.215 s           0.217 s
------------------------------------------------------------

--------------------------------------------------------------
          Begin CP-self-consistency iteration #   10

          Date     :  20251113, Time     :  175023.584
--------------------------------------------------------------
  Starting DFPT first order density matrix calculation
 FIRST_ORDER_DM_sparse
-0.5352708E-04
-0.1643476E-02
-0.1399678E-01
 0.3047848E-02
 0.6305936E-01
-0.2662591E-01
 0.1994079E-03
 0.4163583E-02
 0.1535093E+00
 0.1205308E+00
 0.1402928E-02
-0.1231902E-01
 0.1371153E-01
-0.1858120E-01
 0.1045603E-02
-0.3047261E-01
-0.8628510E+00
 0.5980491E-01
-0.1687341E+01
 0.1953680E+00
  Finished DFPT first order density matrix calculation

  CPSCF convergence accuracy:
  | Change of first_order_density_matrix     :  0.1155E-02
  Starting DFPT first order electron density calculation
  Integrating first_order_rho: batch-based integration.
  Time summed over all CPUs for integration: real work      366.728 s, elapsed      376.729 s
  Starting DFPT first order potential calculation
 FIRST_ORDER_TOTAL_RHO
 0.2979926E-01
 0.2225185E-01
 0.0000000E+00
 0.0000000E+00
 0.3518291E-01
 0.4055581E-01
 0.2632662E-01
 0.5509786E-01
 0.4653559E-01
 0.6349815E-01
 0.7226459E-01
 0.0000000E+00
 0.0000000E+00
 0.0000000E+00
 0.0000000E+00
 0.0000000E+00
 0.0000000E+00
 0.0000000E+00
 0.0000000E+00
 0.0000000E+00

  Evaluating partitioned Hartree potential by multipole expansion.
  | Original multipole sum: apparent total charge =   0.438824E-12
  | Sum of charges compensated after spline to logarithmic grids =   0.132828E-14
  | Analytical far-field extrapolation by fixed multipoles:
  | Hartree multipole sum: apparent total charge =   0.443546E-12
  Summing up the Hartree potential.
  Time summed over all CPUs for potential: real work       20.090 s, elapsed       20.424 s
  | RMS delta_rho error from multipole expansion :   0.642410E-01

  Starting DFPT first order Hamiltonian calculation
  Integrating first-order-Hamiltonian matrix: batch-based integration.
  Time summed over all CPUs for integration: real work     1932.294 s, elapsed     2091.980 s
  Starting DFPT first order coefficients calculation
  End CPSCF iteration #    10                  :  max(cpu_time)    wall_clock(cpu1)
  | Time for this iteration                     :      104.437 s         105.144 s
  | first_order_DM                              :        0.410 s           0.413 s
  | first_order_density                         :       15.689 s          15.803 s
  | first_order_potential                       :        0.853 s           0.860 s
  | first_order_H                               :       86.682 s          87.344 s
  | Solution of Sternheimer eqns.               :        0.219 s           0.221 s
------------------------------------------------------------

--------------------------------------------------------------
          Begin CP-self-consistency iteration #   11

          Date     :  20251113, Time     :  175208.729
--------------------------------------------------------------
  Starting DFPT first order density matrix calculation
 FIRST_ORDER_DM_sparse
-0.5340149E-04
-0.1642763E-02
-0.1400029E-01
 0.3047884E-02
 0.6306608E-01
-0.2663315E-01
 0.2039749E-03
 0.4151265E-02
 0.1535438E+00
 0.1205259E+00
 0.1404640E-02
-0.1232272E-01
 0.1371929E-01
-0.1858358E-01
 0.1046072E-02
-0.3047307E-01
-0.8628628E+00
 0.5980262E-01
-0.1687350E+01
 0.1953788E+00
  Finished DFPT first order density matrix calculation

  CPSCF convergence accuracy:
  | Change of first_order_density_matrix     :  0.8153E-03
  Starting DFPT first order electron density calculation
  Integrating first_order_rho: batch-based integration.
  Time summed over all CPUs for integration: real work      345.261 s, elapsed      354.000 s
  Starting DFPT first order potential calculation
 FIRST_ORDER_TOTAL_RHO
 0.2980030E-01
 0.2225277E-01
 0.0000000E+00
 0.0000000E+00
 0.3518597E-01
 0.4055921E-01
 0.2632761E-01
 0.5510047E-01
 0.4653943E-01
 0.6350105E-01
 0.7226785E-01
 0.0000000E+00
 0.0000000E+00
 0.0000000E+00
 0.0000000E+00
 0.0000000E+00
 0.0000000E+00
 0.0000000E+00
 0.0000000E+00
 0.0000000E+00

  Evaluating partitioned Hartree potential by multipole expansion.
  | Original multipole sum: apparent total charge =   0.489200E-12
  | Sum of charges compensated after spline to logarithmic grids =   0.836323E-15
  | Analytical far-field extrapolation by fixed multipoles:
  | Hartree multipole sum: apparent total charge =   0.489987E-12
  Summing up the Hartree potential.
  Time summed over all CPUs for potential: real work       17.637 s, elapsed       17.925 s
  | RMS delta_rho error from multipole expansion :   0.642418E-01

  Starting DFPT first order Hamiltonian calculation
  Integrating first-order-Hamiltonian matrix: batch-based integration.
  Time summed over all CPUs for integration: real work     2024.751 s, elapsed     2182.833 s
  Starting DFPT first order coefficients calculation

  CP-self-consistency cycle converged.

  End CPSCF iteration #    11                  :  max(cpu_time)    wall_clock(cpu1)
  | Time for this iteration                     :      107.152 s         107.893 s
  | first_order_DM                              :        0.418 s           0.420 s
  | first_order_density                         :       14.749 s          14.856 s
  | first_order_potential                       :        0.750 s           0.755 s
  | first_order_H                               :       90.423 s          91.129 s
  | Solution of Sternheimer eqns.               :        0.226 s           0.227 s
------------------------------------------------------------
  Starting DFPT reinitialization


===========================================================================
                             CPSCF cycle

  CPSCF for electric field response
  CPSCF working for i_q_point =    0
  Number of CPSCF atoms:      0
  Number of CPSCF coordinates:      1
  Pulay mixer will be used
  Mixing parameter for CPSCF:    0.2000E+00
  Convergence accuracy for CPSCF:    0.1000E-02
  DFPT smearing width for fractional occupation / eV:    0.0000E+00

==========================================================================

Calculating first order coefficient matrix for initial guess
  Starting DFPT first order coefficients calculation

--------------------------------------------------------------
          Begin CP-self-consistency iteration #    1

          Date     :  20251113, Time     :  175356.876
--------------------------------------------------------------
  Starting DFPT first order density matrix calculation
 FIRST_ORDER_DM_sparse
 0.2006565E-03
 0.2636306E-02
-0.1449362E-02
-0.2408293E-02
-0.4113002E-01
 0.1629065E-01
 0.5591536E-02
-0.2892729E-01
-0.1071794E+00
-0.1513638E+00
 0.4148646E-03
 0.9512282E-02
-0.1319933E-01
 0.1466915E-01
 0.8462674E-03
-0.5334599E-02
-0.7345324E-01
 0.3159523E-01
-0.1930697E+00
-0.3000904E-01
  Finished DFPT first order density matrix calculation

  CPSCF convergence accuracy:
  | Change of first_order_density_matrix     :  0.0000E+00
  Starting DFPT first order electron density calculation
  Integrating first_order_rho: batch-based integration.
  Time summed over all CPUs for integration: real work      363.055 s, elapsed      372.130 s
  Starting DFPT first order potential calculation
 FIRST_ORDER_TOTAL_RHO
-0.2095795E-01
-0.1672841E-01
 0.0000000E+00
 0.0000000E+00
-0.3545791E-01
-0.4014471E-01
-0.1899984E-01
-0.4469093E-01
-0.4450504E-01
-0.4876804E-01
-0.5176934E-01
 0.0000000E+00
 0.0000000E+00
 0.0000000E+00
 0.0000000E+00
 0.0000000E+00
 0.0000000E+00
 0.0000000E+00
 0.0000000E+00
 0.0000000E+00

  Evaluating partitioned Hartree potential by multipole expansion.
  | Original multipole sum: apparent total charge =  -0.107836E-12
  | Sum of charges compensated after spline to logarithmic grids =   0.132828E-13
  | Analytical far-field extrapolation by fixed multipoles:
  | Hartree multipole sum: apparent total charge =  -0.913068E-13
  Summing up the Hartree potential.
  Time summed over all CPUs for potential: real work       18.046 s, elapsed       18.336 s
  | RMS delta_rho error from multipole expansion :   0.986310E-01

  Starting DFPT first order Hamiltonian calculation
  Integrating first-order-Hamiltonian matrix: batch-based integration.
  Time summed over all CPUs for integration: real work     2033.917 s, elapsed     2192.912 s
  Starting DFPT first order coefficients calculation
  End CPSCF iteration #     1                  :  max(cpu_time)    wall_clock(cpu1)
  | Time for this iteration                     :      107.839 s         108.578 s
  | first_order_DM                              :        0.438 s           0.443 s
  | first_order_density                         :       15.443 s          15.558 s
  | first_order_potential                       :        0.767 s           0.772 s
  | first_order_H                               :       90.847 s          91.550 s
  | Solution of Sternheimer eqns.               :        0.231 s           0.234 s
------------------------------------------------------------

--------------------------------------------------------------
          Begin CP-self-consistency iteration #    2

          Date     :  20251113, Time     :  175545.454
--------------------------------------------------------------
  Starting DFPT first order density matrix calculation
 FIRST_ORDER_DM_sparse
 0.2570406E-03
 0.2874585E-02
 0.3962223E-01
-0.3455725E-02
-0.2896034E-01
 0.3625517E-01
 0.5295465E-02
 0.7904814E-01
-0.8489499E-01
 0.1085214E+00
 0.4043815E-03
 0.3608086E-02
-0.3884916E-01
-0.1658895E-01
 0.6179229E-02
-0.3960060E-02
-0.2473231E-01
 0.3270772E-01
-0.1084244E+00
-0.5222966E-01
  Finished DFPT first order density matrix calculation

  CPSCF convergence accuracy:
  | Change of first_order_density_matrix     :  0.5348E+01
  Starting DFPT first order electron density calculation
  Integrating first_order_rho: batch-based integration.
  Time summed over all CPUs for integration: real work      361.031 s, elapsed      369.895 s
  Starting DFPT first order potential calculation
 FIRST_ORDER_TOTAL_RHO
-0.2227680E-02
-0.2486079E-02
 0.0000000E+00
 0.0000000E+00
-0.8575923E-02
-0.9323775E-02
-0.2380047E-02
-0.6134838E-02
-0.9611475E-02
-0.5204548E-02
-0.3479930E-02
 0.0000000E+00
 0.0000000E+00
 0.0000000E+00
 0.0000000E+00
 0.0000000E+00
 0.0000000E+00
 0.0000000E+00
 0.0000000E+00
 0.0000000E+00

  Evaluating partitioned Hartree potential by multipole expansion.
  | Original multipole sum: apparent total charge =   0.305012E-14
  | Sum of charges compensated after spline to logarithmic grids =   0.491955E-15
  | Analytical far-field extrapolation by fixed multipoles:
  | Hartree multipole sum: apparent total charge =   0.826484E-14
  Summing up the Hartree potential.
  Time summed over all CPUs for potential: real work       17.614 s, elapsed       17.903 s
  | RMS delta_rho error from multipole expansion :   0.544618E-01

  Starting DFPT first order Hamiltonian calculation
  Integrating first-order-Hamiltonian matrix: batch-based integration.
  Time summed over all CPUs for integration: real work     2018.218 s, elapsed     2176.990 s
  Starting DFPT first order coefficients calculation
  End CPSCF iteration #     2                  :  max(cpu_time)    wall_clock(cpu1)
  | Time for this iteration                     :      107.115 s         107.843 s
  | first_order_DM                              :        0.432 s           0.434 s
  | first_order_density                         :       15.350 s          15.462 s
  | first_order_potential                       :        0.748 s           0.753 s
  | first_order_H                               :       90.189 s          90.888 s
  | Solution of Sternheimer eqns.               :        0.228 s           0.229 s
------------------------------------------------------------

--------------------------------------------------------------
          Begin CP-self-consistency iteration #    3

          Date     :  20251113, Time     :  175733.299
--------------------------------------------------------------
  Starting DFPT first order density matrix calculation
 FIRST_ORDER_DM_sparse
 0.2340890E-03
 0.2795356E-02
 0.1663049E-01
-0.2636791E-02
-0.2984639E-01
 0.2285782E-01
 0.6444061E-02
 0.1926362E-01
-0.8333937E-01
-0.3221845E-01
 0.8111577E-03
 0.4267184E-02
-0.2558740E-01
-0.5480773E-02
 0.4164211E-02
-0.7424406E-02
-0.1185680E+00
 0.4711522E-01
-0.3009926E+00
-0.3622935E-01
  Finished DFPT first order density matrix calculation

  CPSCF convergence accuracy:
  | Change of first_order_density_matrix     :  0.1405E+01
  Starting DFPT first order electron density calculation
  Integrating first_order_rho: batch-based integration.
  Time summed over all CPUs for integration: real work      364.592 s, elapsed      373.454 s
  Starting DFPT first order potential calculation
 FIRST_ORDER_TOTAL_RHO
-0.1618172E-01
-0.1325628E-01
 0.0000000E+00
 0.0000000E+00
-0.2731086E-01
-0.3072819E-01
-0.1489321E-01
-0.3256660E-01
-0.3374298E-01
-0.3493614E-01
-0.3634609E-01
 0.0000000E+00
 0.0000000E+00
 0.0000000E+00
 0.0000000E+00
 0.0000000E+00
 0.0000000E+00
 0.0000000E+00
 0.0000000E+00
 0.0000000E+00

  Evaluating partitioned Hartree potential by multipole expansion.
  | Original multipole sum: apparent total charge =  -0.360898E-12
  | Sum of charges compensated after spline to logarithmic grids =  -0.177104E-14
  | Analytical far-field extrapolation by fixed multipoles:
  | Hartree multipole sum: apparent total charge =  -0.365621E-12
  Summing up the Hartree potential.
  Time summed over all CPUs for potential: real work       18.108 s, elapsed       18.400 s
  | RMS delta_rho error from multipole expansion :   0.709404E-01

  Starting DFPT first order Hamiltonian calculation
  Integrating first-order-Hamiltonian matrix: batch-based integration.
  Time summed over all CPUs for integration: real work     2027.742 s, elapsed     2187.855 s
  Starting DFPT first order coefficients calculation
  End CPSCF iteration #     3                  :  max(cpu_time)    wall_clock(cpu1)
  | Time for this iteration                     :      107.771 s         108.503 s
  | first_order_DM                              :        0.435 s           0.438 s
  | first_order_density                         :       15.506 s          15.620 s
  | first_order_potential                       :        0.769 s           0.774 s
  | first_order_H                               :       90.640 s          91.338 s
  | Solution of Sternheimer eqns.               :        0.222 s           0.223 s
------------------------------------------------------------

--------------------------------------------------------------
          Begin CP-self-consistency iteration #    4

          Date     :  20251113, Time     :  175921.803
--------------------------------------------------------------
  Starting DFPT first order density matrix calculation
 FIRST_ORDER_DM_sparse
 0.2431814E-03
 0.3032949E-02
 0.2622399E-01
-0.3120489E-02
-0.3808824E-01
 0.2741851E-01
 0.6418062E-02
 0.3742925E-01
-0.1003540E+00
 0.1250898E-02
 0.6190825E-03
 0.5827832E-02
-0.2899625E-01
-0.4611230E-02
 0.3972191E-02
-0.3912334E-02
-0.3856342E-01
 0.3016526E-01
-0.1291247E+00
-0.3949345E-01
  Finished DFPT first order density matrix calculation

  CPSCF convergence accuracy:
  | Change of first_order_density_matrix     :  0.9489E+00
  Starting DFPT first order electron density calculation
  Integrating first_order_rho: batch-based integration.
  Time summed over all CPUs for integration: real work      360.353 s, elapsed      369.141 s
  Starting DFPT first order potential calculation
 FIRST_ORDER_TOTAL_RHO
-0.1758523E-01
-0.1436702E-01
 0.0000000E+00
 0.0000000E+00
-0.2888429E-01
-0.3251584E-01
-0.1617611E-01
-0.3475205E-01
-0.3574306E-01
-0.3736718E-01
-0.3901282E-01
 0.0000000E+00
 0.0000000E+00
 0.0000000E+00
 0.0000000E+00
 0.0000000E+00
 0.0000000E+00
 0.0000000E+00
 0.0000000E+00
 0.0000000E+00

  Evaluating partitioned Hartree potential by multipole expansion.
  | Original multipole sum: apparent total charge =  -0.441579E-12
  | Sum of charges compensated after spline to logarithmic grids =  -0.983910E-15
  | Analytical far-field extrapolation by fixed multipoles:
  | Hartree multipole sum: apparent total charge =  -0.443546E-12
  Summing up the Hartree potential.
  Time summed over all CPUs for potential: real work       18.202 s, elapsed       18.501 s
  | RMS delta_rho error from multipole expansion :   0.712251E-01

  Starting DFPT first order Hamiltonian calculation
  Integrating first-order-Hamiltonian matrix: batch-based integration.
  Time summed over all CPUs for integration: real work     1997.754 s, elapsed     2156.664 s
  Starting DFPT first order coefficients calculation
  End CPSCF iteration #     4                  :  max(cpu_time)    wall_clock(cpu1)
  | Time for this iteration                     :      106.351 s         107.082 s
  | first_order_DM                              :        0.424 s           0.426 s
  | first_order_density                         :       15.335 s          15.449 s
  | first_order_potential                       :        0.774 s           0.779 s
  | first_order_H                               :       89.350 s          90.038 s
  | Solution of Sternheimer eqns.               :        0.229 s           0.231 s
------------------------------------------------------------

--------------------------------------------------------------
          Begin CP-self-consistency iteration #    5

          Date     :  20251113, Time     :  180108.886
--------------------------------------------------------------
  Starting DFPT first order density matrix calculation
 FIRST_ORDER_DM_sparse
 0.2391906E-03
 0.3038183E-02
 0.2542600E-01
-0.3114836E-02
-0.3970624E-01
 0.2688803E-01
 0.6421740E-02
 0.3407316E-01
-0.1035806E+00
-0.9026380E-02
 0.6014902E-03
 0.6102233E-02
-0.2832114E-01
-0.3602865E-02
 0.3706537E-02
-0.3708709E-02
-0.3702580E-01
 0.2768342E-01
-0.1218345E+00
-0.3570565E-01
  Finished DFPT first order density matrix calculation

  CPSCF convergence accuracy:
  | Change of first_order_density_matrix     :  0.4808E+00
  Starting DFPT first order electron density calculation
  Integrating first_order_rho: batch-based integration.
  Time summed over all CPUs for integration: real work      361.492 s, elapsed      370.314 s
  Starting DFPT first order potential calculation
 FIRST_ORDER_TOTAL_RHO
-0.1782001E-01
-0.1457118E-01
 0.0000000E+00
 0.0000000E+00
-0.2880490E-01
-0.3242585E-01
-0.1640949E-01
-0.3469076E-01
-0.3563617E-01
-0.3728512E-01
-0.3891377E-01
 0.0000000E+00
 0.0000000E+00
 0.0000000E+00
 0.0000000E+00
 0.0000000E+00
 0.0000000E+00
 0.0000000E+00
 0.0000000E+00
 0.0000000E+00

  Evaluating partitioned Hartree potential by multipole expansion.
  | Original multipole sum: apparent total charge =  -0.451024E-12
  | Sum of charges compensated after spline to logarithmic grids =  -0.550989E-14
  | Analytical far-field extrapolation by fixed multipoles:
  | Hartree multipole sum: apparent total charge =  -0.452598E-12
  Summing up the Hartree potential.
  Time summed over all CPUs for potential: real work       18.158 s, elapsed       18.459 s
  | RMS delta_rho error from multipole expansion :   0.704546E-01

  Starting DFPT first order Hamiltonian calculation
  Integrating first-order-Hamiltonian matrix: batch-based integration.
  Time summed over all CPUs for integration: real work     2014.336 s, elapsed     2183.729 s
  Starting DFPT first order coefficients calculation
  End CPSCF iteration #     5                  :  max(cpu_time)    wall_clock(cpu1)
  | Time for this iteration                     :      107.597 s         108.339 s
  | first_order_DM                              :        0.430 s           0.432 s
  | first_order_density                         :       15.393 s          15.508 s
  | first_order_potential                       :        0.772 s           0.778 s
  | first_order_H                               :       90.466 s          91.169 s
  | Solution of Sternheimer eqns.               :        0.226 s           0.228 s
------------------------------------------------------------

--------------------------------------------------------------
          Begin CP-self-consistency iteration #    6

          Date     :  20251113, Time     :  180257.225
--------------------------------------------------------------
  Starting DFPT first order density matrix calculation
 FIRST_ORDER_DM_sparse
 0.2318381E-03
 0.2985865E-02
 0.2384821E-01
-0.3058483E-02
-0.3989490E-01
 0.2630717E-01
 0.6275111E-02
 0.3012459E-01
-0.1044385E+00
-0.1929443E-01
 0.5645090E-03
 0.6218466E-02
-0.2776945E-01
-0.3014014E-02
 0.3534222E-02
-0.3878511E-02
-0.4340255E-01
 0.2693254E-01
-0.1310054E+00
-0.3154330E-01
  Finished DFPT first order density matrix calculation

  CPSCF convergence accuracy:
  | Change of first_order_density_matrix     :  0.1086E+00
  Starting DFPT first order electron density calculation
  Integrating first_order_rho: batch-based integration.
  Time summed over all CPUs for integration: real work      361.782 s, elapsed      370.262 s
  Starting DFPT first order potential calculation
 FIRST_ORDER_TOTAL_RHO
-0.1797881E-01
-0.1470095E-01
 0.0000000E+00
 0.0000000E+00
-0.2867832E-01
-0.3229656E-01
-0.1656320E-01
-0.3465248E-01
-0.3550040E-01
-0.3725668E-01
-0.3889804E-01
 0.0000000E+00
 0.0000000E+00
 0.0000000E+00
 0.0000000E+00
 0.0000000E+00
 0.0000000E+00
 0.0000000E+00
 0.0000000E+00
 0.0000000E+00

  Evaluating partitioned Hartree potential by multipole expansion.
  | Original multipole sum: apparent total charge =  -0.359717E-12
  | Sum of charges compensated after spline to logarithmic grids =  -0.127908E-14
  | Analytical far-field extrapolation by fixed multipoles:
  | Hartree multipole sum: apparent total charge =  -0.357750E-12
  Summing up the Hartree potential.
  Time summed over all CPUs for potential: real work       18.091 s, elapsed       18.396 s
  | RMS delta_rho error from multipole expansion :   0.704526E-01

  Starting DFPT first order Hamiltonian calculation
  Integrating first-order-Hamiltonian matrix: batch-based integration.
  Time summed over all CPUs for integration: real work     1987.362 s, elapsed     2176.671 s
  Starting DFPT first order coefficients calculation
  End CPSCF iteration #     6                  :  max(cpu_time)    wall_clock(cpu1)
  | Time for this iteration                     :      107.369 s         108.127 s
  | first_order_DM                              :        0.431 s           0.434 s
  | first_order_density                         :       15.399 s          15.515 s
  | first_order_potential                       :        0.769 s           0.775 s
  | first_order_H                               :       90.171 s          90.874 s
  | Solution of Sternheimer eqns.               :        0.224 s           0.227 s
------------------------------------------------------------

--------------------------------------------------------------
          Begin CP-self-consistency iteration #    7

          Date     :  20251113, Time     :  180445.352
--------------------------------------------------------------
  Starting DFPT first order density matrix calculation
 FIRST_ORDER_DM_sparse
 0.2267638E-03
 0.2938774E-02
 0.2308678E-01
-0.3023552E-02
-0.3937200E-01
 0.2630534E-01
 0.6102045E-02
 0.2911576E-01
-0.1041180E+00
-0.2124216E-01
 0.5161820E-03
 0.6388911E-02
-0.2782233E-01
-0.2669113E-02
 0.3490014E-02
-0.3892692E-02
-0.4385164E-01
 0.2665651E-01
-0.1300118E+00
-0.3031803E-01
  Finished DFPT first order density matrix calculation

  CPSCF convergence accuracy:
  | Change of first_order_density_matrix     :  0.2070E-01
  Starting DFPT first order electron density calculation
  Integrating first_order_rho: batch-based integration.
  Time summed over all CPUs for integration: real work      360.695 s, elapsed      369.400 s
  Starting DFPT first order potential calculation
 FIRST_ORDER_TOTAL_RHO
-0.1796326E-01
-0.1468664E-01
 0.0000000E+00
 0.0000000E+00
-0.2861671E-01
-0.3223030E-01
-0.1654873E-01
-0.3459726E-01
-0.3542910E-01
-0.3719838E-01
-0.3883699E-01
 0.0000000E+00
 0.0000000E+00
 0.0000000E+00
 0.0000000E+00
 0.0000000E+00
 0.0000000E+00
 0.0000000E+00
 0.0000000E+00
 0.0000000E+00

  Evaluating partitioned Hartree potential by multipole expansion.
  | Original multipole sum: apparent total charge =  -0.289269E-12
  | Sum of charges compensated after spline to logarithmic grids =   0.526392E-14
  | Analytical far-field extrapolation by fixed multipoles:
  | Hartree multipole sum: apparent total charge =  -0.283169E-12
  Summing up the Hartree potential.
  Time summed over all CPUs for potential: real work       18.081 s, elapsed       18.379 s
  | RMS delta_rho error from multipole expansion :   0.704812E-01

  Starting DFPT first order Hamiltonian calculation
  Integrating first-order-Hamiltonian matrix: batch-based integration.
  Time summed over all CPUs for integration: real work     1963.084 s, elapsed     2142.338 s
  Starting DFPT first order coefficients calculation
  End CPSCF iteration #     7                  :  max(cpu_time)    wall_clock(cpu1)
  | Time for this iteration                     :      106.034 s         106.782 s
  | first_order_DM                              :        0.434 s           0.437 s
  | first_order_density                         :       15.373 s          15.489 s
  | first_order_potential                       :        0.768 s           0.774 s
  | first_order_H                               :       88.758 s          89.444 s
  | Solution of Sternheimer eqns.               :        0.238 s           0.241 s
------------------------------------------------------------

--------------------------------------------------------------
          Begin CP-self-consistency iteration #    8

          Date     :  20251113, Time     :  180632.135
--------------------------------------------------------------
  Starting DFPT first order density matrix calculation
 FIRST_ORDER_DM_sparse
 0.2283783E-03
 0.2946468E-02
 0.2303556E-01
-0.3018961E-02
-0.3909266E-01
 0.2624164E-01
 0.6151726E-02
 0.2918900E-01
-0.1034340E+00
-0.2052189E-01
 0.5331141E-03
 0.6356305E-02
-0.2779536E-01
-0.2714290E-02
 0.3504125E-02
-0.3894668E-02
-0.4377251E-01
 0.2673798E-01
-0.1298851E+00
-0.3044346E-01
  Finished DFPT first order density matrix calculation

  CPSCF convergence accuracy:
  | Change of first_order_density_matrix     :  0.1117E-01
  Starting DFPT first order electron density calculation
  Integrating first_order_rho: batch-based integration.
  Time summed over all CPUs for integration: real work      359.013 s, elapsed      367.448 s
  Starting DFPT first order potential calculation
 FIRST_ORDER_TOTAL_RHO
-0.1795993E-01
-0.1468406E-01
 0.0000000E+00
 0.0000000E+00
-0.2859598E-01
-0.3220604E-01
-0.1654637E-01
-0.3456735E-01
-0.3540082E-01
-0.3716170E-01
-0.3879354E-01
 0.0000000E+00
 0.0000000E+00
 0.0000000E+00
 0.0000000E+00
 0.0000000E+00
 0.0000000E+00
 0.0000000E+00
 0.0000000E+00
 0.0000000E+00

  Evaluating partitioned Hartree potential by multipole expansion.
  | Original multipole sum: apparent total charge =  -0.509468E-12
  | Sum of charges compensated after spline to logarithmic grids =   0.245977E-15
  | Analytical far-field extrapolation by fixed multipoles:
  | Hartree multipole sum: apparent total charge =  -0.504352E-12
  Summing up the Hartree potential.
  Time summed over all CPUs for potential: real work       17.558 s, elapsed       17.838 s
  | RMS delta_rho error from multipole expansion :   0.704929E-01

  Starting DFPT first order Hamiltonian calculation
  Integrating first-order-Hamiltonian matrix: batch-based integration.
  Time summed over all CPUs for integration: real work     1876.695 s, elapsed     2053.793 s
  Starting DFPT first order coefficients calculation
  End CPSCF iteration #     8                  :  max(cpu_time)    wall_clock(cpu1)
  | Time for this iteration                     :      102.439 s         103.146 s
  | first_order_DM                              :        0.464 s           0.467 s
  | first_order_density                         :       15.306 s          15.416 s
  | first_order_potential                       :        0.746 s           0.752 s
  | first_order_H                               :       85.100 s          85.755 s
  | Solution of Sternheimer eqns.               :        0.248 s           0.250 s
------------------------------------------------------------

--------------------------------------------------------------
          Begin CP-self-consistency iteration #    9

          Date     :  20251113, Time     :  180815.282
--------------------------------------------------------------
  Starting DFPT first order density matrix calculation
 FIRST_ORDER_DM_sparse
 0.2307413E-03
 0.2961819E-02
 0.2299296E-01
-0.3019038E-02
-0.3895123E-01
 0.2614531E-01
 0.6232653E-02
 0.2909031E-01
-0.1029186E+00
-0.2040174E-01
 0.5594817E-03
 0.6302913E-02
-0.2771558E-01
-0.2768312E-02
 0.3517346E-02
-0.3904988E-02
-0.4406630E-01
 0.2680459E-01
-0.1306006E+00
-0.3050073E-01
  Finished DFPT first order density matrix calculation

  CPSCF convergence accuracy:
  | Change of first_order_density_matrix     :  0.2658E-02
  Starting DFPT first order electron density calculation
  Integrating first_order_rho: batch-based integration.
  Time summed over all CPUs for integration: real work      368.923 s, elapsed      377.298 s
  Starting DFPT first order potential calculation
 FIRST_ORDER_TOTAL_RHO
-0.1795951E-01
-0.1468391E-01
 0.0000000E+00
 0.0000000E+00
-0.2859046E-01
-0.3219927E-01
-0.1654619E-01
-0.3455975E-01
-0.3539253E-01
-0.3715202E-01
-0.3878167E-01
 0.0000000E+00
 0.0000000E+00
 0.0000000E+00
 0.0000000E+00
 0.0000000E+00
 0.0000000E+00
 0.0000000E+00
 0.0000000E+00
 0.0000000E+00

  Evaluating partitioned Hartree potential by multipole expansion.
  | Original multipole sum: apparent total charge =  -0.443940E-12
  | Sum of charges compensated after spline to logarithmic grids =  -0.983910E-16
  | Analytical far-field extrapolation by fixed multipoles:
  | Hartree multipole sum: apparent total charge =  -0.442169E-12
  Summing up the Hartree potential.
  Time summed over all CPUs for potential: real work       16.980 s, elapsed       17.260 s
  | RMS delta_rho error from multipole expansion :   0.705015E-01

  Starting DFPT first order Hamiltonian calculation
  Integrating first-order-Hamiltonian matrix: batch-based integration.
  Time summed over all CPUs for integration: real work     1867.598 s, elapsed     2045.887 s
  Starting DFPT first order coefficients calculation
  End CPSCF iteration #     9                  :  max(cpu_time)    wall_clock(cpu1)
  | Time for this iteration                     :      102.516 s         103.212 s
  | first_order_DM                              :        0.472 s           0.475 s
  | first_order_density                         :       15.713 s          15.828 s
  | first_order_potential                       :        0.722 s           0.727 s
  | first_order_H                               :       84.778 s          85.425 s
  | Solution of Sternheimer eqns.               :        0.248 s           0.251 s
------------------------------------------------------------

--------------------------------------------------------------
          Begin CP-self-consistency iteration #   10

          Date     :  20251113, Time     :  180958.494
--------------------------------------------------------------
  Starting DFPT first order density matrix calculation
 FIRST_ORDER_DM_sparse
 0.2312263E-03
 0.2965009E-02
 0.2297863E-01
-0.3018514E-02
-0.3891843E-01
 0.2611672E-01
 0.6250111E-02
 0.2905971E-01
-0.1027983E+00
-0.2038177E-01
 0.5650211E-03
 0.6293993E-02
-0.2769320E-01
-0.2771494E-02
 0.3517973E-02
-0.3906455E-02
-0.4410920E-01
 0.2682340E-01
-0.1307120E+00
-0.3051732E-01
  Finished DFPT first order density matrix calculation

  CPSCF convergence accuracy:
  | Change of first_order_density_matrix     :  0.1195E-02
  Starting DFPT first order electron density calculation
  Integrating first_order_rho: batch-based integration.
  Time summed over all CPUs for integration: real work      373.531 s, elapsed      381.788 s
  Starting DFPT first order potential calculation
 FIRST_ORDER_TOTAL_RHO
-0.1795719E-01
-0.1468214E-01
 0.0000000E+00
 0.0000000E+00
-0.2858599E-01
-0.3219402E-01
-0.1654412E-01
-0.3455415E-01
-0.3538636E-01
-0.3714541E-01
-0.3877403E-01
 0.0000000E+00
 0.0000000E+00
 0.0000000E+00
 0.0000000E+00
 0.0000000E+00
 0.0000000E+00
 0.0000000E+00
 0.0000000E+00
 0.0000000E+00

  Evaluating partitioned Hartree potential by multipole expansion.
  | Original multipole sum: apparent total charge =  -0.455157E-12
  | Sum of charges compensated after spline to logarithmic grids =  -0.821564E-14
  | Analytical far-field extrapolation by fixed multipoles:
  | Hartree multipole sum: apparent total charge =  -0.458895E-12
  Summing up the Hartree potential.
  Time summed over all CPUs for potential: real work       17.194 s, elapsed       17.481 s
  | RMS delta_rho error from multipole expansion :   0.705020E-01

  Starting DFPT first order Hamiltonian calculation
  Integrating first-order-Hamiltonian matrix: batch-based integration.
  Time summed over all CPUs for integration: real work     1866.100 s, elapsed     2041.186 s
  Starting DFPT first order coefficients calculation
  End CPSCF iteration #    10                  :  max(cpu_time)    wall_clock(cpu1)
  | Time for this iteration                     :      102.501 s         103.202 s
  | first_order_DM                              :        0.472 s           0.475 s
  | first_order_density                         :       15.899 s          16.014 s
  | first_order_potential                       :        0.731 s           0.736 s
  | first_order_H                               :       84.578 s          85.230 s
  | Solution of Sternheimer eqns.               :        0.240 s           0.242 s
------------------------------------------------------------

--------------------------------------------------------------
          Begin CP-self-consistency iteration #   11

          Date     :  20251113, Time     :  181141.698
--------------------------------------------------------------
  Starting DFPT first order density matrix calculation
 FIRST_ORDER_DM_sparse
 0.2312623E-03
 0.2965207E-02
 0.2296978E-01
-0.3017889E-02
-0.3890820E-01
 0.2610724E-01
 0.6252004E-02
 0.2904570E-01
-0.1027705E+00
-0.2038756E-01
 0.5655346E-03
 0.6294825E-02
-0.2768734E-01
-0.2765922E-02
 0.3516612E-02
-0.3907094E-02
-0.4412668E-01
 0.2683128E-01
-0.1307544E+00
-0.3052031E-01
  Finished DFPT first order density matrix calculation

  CPSCF convergence accuracy:
  | Change of first_order_density_matrix     :  0.6460E-03
  Starting DFPT first order electron density calculation
  Integrating first_order_rho: batch-based integration.
  Time summed over all CPUs for integration: real work      379.295 s, elapsed      387.824 s
  Starting DFPT first order potential calculation
 FIRST_ORDER_TOTAL_RHO
-0.1795491E-01
-0.1468034E-01
 0.0000000E+00
 0.0000000E+00
-0.2858215E-01
-0.3218960E-01
-0.1654206E-01
-0.3454926E-01
-0.3538127E-01
-0.3713975E-01
-0.3876760E-01
 0.0000000E+00
 0.0000000E+00
 0.0000000E+00
 0.0000000E+00
 0.0000000E+00
 0.0000000E+00
 0.0000000E+00
 0.0000000E+00
 0.0000000E+00

  Evaluating partitioned Hartree potential by multipole expansion.
  | Original multipole sum: apparent total charge =  -0.506910E-12
  | Sum of charges compensated after spline to logarithmic grids =   0.541150E-15
  | Analytical far-field extrapolation by fixed multipoles:
  | Hartree multipole sum: apparent total charge =  -0.509862E-12
  Summing up the Hartree potential.
  Time summed over all CPUs for potential: real work       17.197 s, elapsed       17.485 s
  | RMS delta_rho error from multipole expansion :   0.705016E-01

  Starting DFPT first order Hamiltonian calculation
  Integrating first-order-Hamiltonian matrix: batch-based integration.
  Time summed over all CPUs for integration: real work     1888.409 s, elapsed     2062.806 s
  Starting DFPT first order coefficients calculation

  CP-self-consistency cycle converged.

  End CPSCF iteration #    11                  :  max(cpu_time)    wall_clock(cpu1)
  | Time for this iteration                     :      103.623 s         104.329 s
  | first_order_DM                              :        0.465 s           0.469 s
  | first_order_density                         :       16.146 s          16.266 s
  | first_order_potential                       :        0.731 s           0.736 s
  | first_order_H                               :       85.478 s          86.131 s
  | Solution of Sternheimer eqns.               :        0.219 s           0.220 s
------------------------------------------------------------
  Electric field response: Starting output of polarizability tensor
DFPT for polarizability (Bohr^3) :--->
   121.659814248107       -3.96149555018944       -18.7674535587282
  -5.52780782744535        111.405727640792        4.96354250919701
  -18.8204949056758        5.73216946253754        131.003945418615
The mean polarizability is  121.356496
DFPT polarizability (Bohr^3)        xx        yy        zz        xy        xz        yz
  | Polarizability:--->            121.6598142   111.4057276   131.0039454    -3.9614956   -18.7674536     4.9635425
  Electric field response: Begin calculation of dielectric constant

DFPT for dielectric_constant:--->  # PARSE DFPT_dielectric_tensor
               2.446280353721058            -0.047093884048746            -0.223105711110218
              -0.065714056111212             2.324380742931994             0.059006123429312
              -0.223736261621078             0.068143487881388             2.557362500426772
  Cleaning up pulay mixer
  Starting DFPT general deallocation
  Starting electric field response deallocation

------------------------------------------------------------------------------
  Final output of selected total energy values:

  The following output summarizes some interesting total energy values
  at the end of a run (AFTER all relaxation, molecular dynamics, etc.).

  | Total energy of the DFT / Hartree-Fock s.c.f. calculation      :         -46996.211454854 eV
  | Final zero-broadening corrected energy (caution - metals only) :         -46996.211454854 eV
  | For reference only, the value of 1 Hartree used in FHI-aims is :             27.211384500 eV
  | For reference only, the overall average (free atom contribution
  | + realspace contribution) of the electrostatic potential after
  | s.c.f. convergence is                                          :            -10.423348887 eV

  Before relying on these values, please be sure to understand exactly which
  total energy value is referred to by a given number. Different objects may
  all carry the same name 'total energy'. Definitions:

  Total energy of the DFT / Hartree-Fock s.c.f. calculation:
  | Note that this energy does not include ANY quantities calculated after the
  | s.c.f. cycle, in particular not ANY RPA, MP2, etc. many-body perturbation terms.

  Final zero-broadening corrected energy:
  | For metallic systems only, a broadening of the occupation numbers at the Fermi
  | level can be extrapolated back to zero broadening by an electron-gas inspired
  | formula. For all systems that are not real metals, this value can be
  | meaningless and should be avoided.

------------------------------------------------------------------------------
  Methods described in the following list of references were used in this FHI-aims run.
  If you publish the results, please make sure to cite these reference if they apply.
  FHI-aims is an academic code, and for our developers (often, Ph.D. students
  and postdocs), scientific credit in the community is essential.
  Thank you for helping us!

  For any use of FHI-aims, please cite:

    Volker Blum, Ralf Gehrke, Felix Hanke, Paula Havu, Ville Havu,
    Xinguo Ren, Karsten Reuter, and Matthias Scheffler
    'Ab initio molecular simulations with numeric atom-centered orbitals'
    Computer Physics Communications 180, 2175-2196 (2009)
    http://doi.org/10.1016/j.cpc.2009.06.022


  The provided symmetry information was generated with SPGlib:

    Atsushi Togo, Yusuke Seto, Dimitar Pashov
    SPGlib 1.7.3 obtained from http://spglib.sourceforge.net
    Licence: New BSD license
    Copyright (C) 2008 Atsushi Togo


  The DFPT (perturbation by an electric field) part of the code was used.
  Here is the corresponding reference:

    Honghui Shang, Nathaniel Raimbault, Mariana Rossi,
    Christian Carbogno, Patrick Rinke and Matthias Scheffler,
    'All-Electron, Real-Space Perturbation Theory for Homogeneous
    Electric Fields: Theory, Implementation, and Application within dft'
    New Journal of Physics, 20(7):073040, 2018


  When using the D3 dispersion correction in FHI-aims, please cite
  the s-dftd3 library used for its computation

    Sebastian Ehlert
    Simple DFT-D3: Library first implementation of the D3 dispersion correction

    J. Open Source Softw. 9(103), 7169, (2024)
    https://doi.org/10.21105/joss.07169


  When using the D3 dispersion correction in FHI-aims, please cite

    Stefan Grimme, Jens Antony, Stephan Ehrlich, Helge Krieg
    A consistent and accurate ab initio parametrization of density
    functional dispersion correction (DFT-D) for the 94 elements H-Pu

    J. Chem. Phys. 132, 154104 (2010)
    https://doi.org/10.1063/1.3382344


  If you used rational/Becke-Johnson damping with the
  D3 dispersion correction in FHI-aims, please cite

    Stefan Grimme, Stephan Ehrlich, Lars Goerigk
    Effect of the damping function in dispersion corrected density functional theory

    J Comput Chem 32, 1456–1465, (2011)
    https://doi.org/10.1002/jcc.21759


  The ELSI infrastructure was used in your run to solve the Kohn-Sham electronic structure.
  Please check out https://wordpress.elsi-interchange.org to learn more.
  If scalability is important for your project, please acknowledge ELSI by citing:

    V. W-z. Yu, F. Corsetti, A. Garcia, W. P. Huhn, M. Jacquelin, W. Jia,
    B. Lange, L. Lin, J. Lu, W. Mi, A. Seifitokaldani, A. Vazquez-Mayagoitia,
    C. Yang, H. Yang, and V. Blum
    'ELSI: A unified software interface for Kohn-Sham electronic structure solvers'
    Computer Physics Communications 222, 267-285 (2018).
    http://doi.org/10.1016/j.cpc.2017.09.007


  For the real-space grid partitioning and parallelization used in this calculation, please cite:

    Ville Havu, Volker Blum, Paula Havu, and Matthias Scheffler,
    'Efficient O(N) integration for all-electron electronic structure calculation'
    'using numerically tabulated basis functions'
    Journal of Computational Physics 228, 8367-8379 (2009).
    http://doi.org/10.1016/j.jcp.2009.08.008

  Of course, there are many other important community references, e.g., those cited in the
  above references. Our list is limited to references that describe implementations in the
  FHI-aims code. The reason is purely practical (length of this list) - please credit others as well.
------------------------------------------------------------
Warnings summary:

At least    1 warnings were raised during execution.

------------------------------------------------------------
          Leaving FHI-aims.
          Date     :  20251113, Time     :  181326.065

          Computational steps:
          | Number of self-consistency cycles          :           13
          | Number of SCF (re)initializations          :            1
          | Number of coupled perturbed self-consistency cycles          :           33
          | Number of CPSCF (re)initializations          :            3

          Detailed time accounting                     :  max(cpu_time)    wall_clock(cpu1)
          | Total time                                  :     3700.067 s        3725.465 s
          | Preparation time                            :        0.205 s           0.206 s
          | Boundary condition initalization            :        0.073 s           0.072 s
          | Grid partitioning                           :        0.175 s           0.176 s
          | Preloading free-atom quantities on grid     :        0.879 s           0.885 s
          | Free-atom superposition energy              :        0.074 s           0.074 s
          | Total time for integrations                 :       51.490 s          51.835 s
          | Total time for solution of K.-S. equations  :        8.557 s           8.626 s
          | Total time for density update               :       89.442 s          90.065 s
          | Total time for mixing                       :        0.092 s           0.081 s
          | Total time for Hartree multipole update     :        0.028 s           0.035 s
          | Total time for Hartree multipole sum        :        2.824 s           2.842 s
          | Total time for total energy evaluation      :        0.016 s           0.029 s
          | Total time for scaled ZORA corrections      :        0.000 s           0.000 s
          | Total time for vdW-like corrections         :        0.538 s           0.557 s
          | Total time for DFPT                         :     3421.187 s        3444.591 s
          | Total time first_order_DM                   :       14.257 s          14.351 s
          | Total time first_order_density              :      507.196 s         510.902 s
          | Total time first_order_potential            :       24.681 s          24.855 s
          | Total time first_order_H                    :     2854.442 s        2876.292 s
          | Total time solving of Sternheimer equations :        8.160 s           8.263 s
          | Total time for dielectric constant          :        0.012 s           0.012 s
          | Total time momentum matrix                  :        0.000 s           0.000 s

          Partial memory accounting:
          | Residual value for overall tracked memory usage across tasks:     0.000000 MB (should be 0.000000 MB)
          | Peak values for overall tracked memory usage:
          |   Minimum:      447.859 MB (on task 22 after allocating DFPT_pulay_mixing::pulay_mix::alphas)
          |   Maximum:      451.047 MB (on task  9 after allocating DFPT_pulay_mixing::pulay_mix::alphas)
          |   Average:      449.198 MB
          | Largest tracked array allocation:
          |   Minimum:      121.781 MB (DFPT_pulay_mixing::initialize_pulay_mixing::X_in_diffs on task  0)
          |   Maximum:      121.781 MB (DFPT_pulay_mixing::initialize_pulay_mixing::X_in_diffs on task  0)
          |   Average:      121.781 MB
          Note:  These values currently only include a subset of arrays which are explicitly tracked.
          The "true" memory usage will be greater.

          Have a nice day.
------------------------------------------------------------
