Generated by cif2cell 1.2.10.  :  Failed to get author information, No journal information. Species order: Si O 
   5.027782
  0.866025403784439  -0.500000000000000   0.000000000000000
  0.000000000000000   1.000000000000000   0.000000000000000
  0.000000000000000   0.000000000000000   1.097684415337773
   3   6
Direct
  0.000000000000000   0.477290000000000   0.333333333333333 
  0.477290000000000   0.000000000000000   0.666666666666667 
  0.522710000000000   0.522710000000000   0.000000000000000 
  0.160740000000000   0.745703000000000   0.537333670000000 
  0.584963000000000   0.839260000000000   0.870667003333333 
  0.415037000000000   0.254297000000000   0.795999663333333 
  0.745703000000000   0.160740000000000   0.462666330000000 
  0.839260000000000   0.584963000000000   0.129332996666667 
  0.254297000000000   0.415037000000000   0.204000336666667 
