Generated by cif2cell 1.1.0.  :  Failed 
   9.37160000000000     
     0.8729601893075745   -0.5040038001977785    0.0000000000000000
    -0.0000000000786144    1.0080076005317211    0.0000000000000000
     0.0000000000000000    0.0000000000000000    0.7390192331266765
   O    P    Ca   F 
    24     6    10     2
Direct
  0.3263972434840170  0.4847346211505084  0.2500000000000000
  0.4847346211505084  0.1583373776664772  0.7500000000000000
  0.8416626223335228  0.3263972434840170  0.7500000000000000
  0.1583373776664772  0.6736027565159830  0.2500000000000000
  0.5152653788494916  0.8416626223335228  0.2500000000000000
  0.6736027565159830  0.5152653788494916  0.7500000000000000
  0.5883426118227817  0.4664575313077961  0.2500000000000000
  0.4664575313077961  0.8781149194850286  0.7500000000000000
  0.1218850805149714  0.5883426118227817  0.7500000000000000
  0.8781149194850286  0.4116573881772183  0.2500000000000000
  0.5335424686922039  0.1218850805149714  0.2500000000000000
  0.4116573881772183  0.5335424686922039  0.7500000000000000
  0.3406093516984328  0.2557880660355139  0.0696862123563449
  0.2557880660355139  0.9151787143370882  0.5696862123563449
  0.3406093516984328  0.2557880660355139  0.4303137876436551
  0.0848212856629118  0.3406093516984328  0.5696862123563449
  0.9151787143370882  0.6593906483015672  0.4303137876436551
  0.0848212856629118  0.3406093516984328  0.9303137876436551
  0.7442119339644861  0.0848212856629118  0.4303137876436551
  0.7442119339644861  0.0848212856629118  0.0696862123563449
  0.2557880660355139  0.9151787143370882  0.9303137876436551
  0.6593906483015672  0.7442119339644861  0.5696862123563449
  0.6593906483015672  0.7442119339644861  0.9303137876436551
  0.9151787143370882  0.6593906483015672  0.0696862123563449
  0.3976821352026221  0.3684183203699334  0.2500000000000000
  0.3684183203699334  0.9707361851673184  0.7500000000000000
  0.0292638148326816  0.3976821352026221  0.7500000000000000
  0.9707361851673184  0.6023178647973779  0.2500000000000000
  0.6315816796300666  0.0292638148326816  0.2500000000000000
  0.6023178647973779  0.6315816796300666  0.7500000000000000
  0.3333333333333357  0.6666666666666643  0.0008048465342441
  0.6666666666666643  0.3333333333333357  0.5008048465342441
  0.3333333333333357  0.6666666666666643  0.4991951534657559
  0.6666666666666643  0.3333333333333357  0.9991951534657559
  0.2433629183874757  0.9962596720222905  0.2500000000000000
  0.9962596720222905  0.7528967536348077  0.7500000000000000
  0.2471032463651923  0.2433629183874757  0.7500000000000000
  0.7528967536348077  0.7566370816125243  0.2500000000000000
  0.0037403279777095  0.2471032463651923  0.2500000000000000
  0.7566370816125243  0.0037403279777095  0.7500000000000000
  0.0000000000000000  0.0000000000000000  0.2500000000000000
  0.0000000000000000  0.0000000000000000  0.7500000000000000
 
  0.00000000E+00  0.00000000E+00  0.00000000E+00
  0.00000000E+00  0.00000000E+00  0.00000000E+00
  0.00000000E+00  0.00000000E+00  0.00000000E+00
  0.00000000E+00  0.00000000E+00  0.00000000E+00
  0.00000000E+00  0.00000000E+00  0.00000000E+00
  0.00000000E+00  0.00000000E+00  0.00000000E+00
  0.00000000E+00  0.00000000E+00  0.00000000E+00
  0.00000000E+00  0.00000000E+00  0.00000000E+00
  0.00000000E+00  0.00000000E+00  0.00000000E+00
  0.00000000E+00  0.00000000E+00  0.00000000E+00
  0.00000000E+00  0.00000000E+00  0.00000000E+00
  0.00000000E+00  0.00000000E+00  0.00000000E+00
  0.00000000E+00  0.00000000E+00  0.00000000E+00
  0.00000000E+00  0.00000000E+00  0.00000000E+00
  0.00000000E+00  0.00000000E+00  0.00000000E+00
  0.00000000E+00  0.00000000E+00  0.00000000E+00
  0.00000000E+00  0.00000000E+00  0.00000000E+00
  0.00000000E+00  0.00000000E+00  0.00000000E+00
  0.00000000E+00  0.00000000E+00  0.00000000E+00
  0.00000000E+00  0.00000000E+00  0.00000000E+00
  0.00000000E+00  0.00000000E+00  0.00000000E+00
  0.00000000E+00  0.00000000E+00  0.00000000E+00
  0.00000000E+00  0.00000000E+00  0.00000000E+00
  0.00000000E+00  0.00000000E+00  0.00000000E+00
  0.00000000E+00  0.00000000E+00  0.00000000E+00
  0.00000000E+00  0.00000000E+00  0.00000000E+00
  0.00000000E+00  0.00000000E+00  0.00000000E+00
  0.00000000E+00  0.00000000E+00  0.00000000E+00
  0.00000000E+00  0.00000000E+00  0.00000000E+00
  0.00000000E+00  0.00000000E+00  0.00000000E+00
  0.00000000E+00  0.00000000E+00  0.00000000E+00
  0.00000000E+00  0.00000000E+00  0.00000000E+00
  0.00000000E+00  0.00000000E+00  0.00000000E+00
  0.00000000E+00  0.00000000E+00  0.00000000E+00
  0.00000000E+00  0.00000000E+00  0.00000000E+00
  0.00000000E+00  0.00000000E+00  0.00000000E+00
  0.00000000E+00  0.00000000E+00  0.00000000E+00
  0.00000000E+00  0.00000000E+00  0.00000000E+00
  0.00000000E+00  0.00000000E+00  0.00000000E+00
  0.00000000E+00  0.00000000E+00  0.00000000E+00
  0.00000000E+00  0.00000000E+00  0.00000000E+00
  0.00000000E+00  0.00000000E+00  0.00000000E+00
