#
# CELL written by cell_write: Keith Refson, Oct 2006
#
%BLOCK lattice_cart
   ANG
       2.12346313563576        2.12346313563576      -0.511063154876444E-34
       2.12346313563576      -0.262136288364042E-34    2.12346313563576    
      0.264188437032808E-36    2.12346313563576        2.12346313563576    
%ENDBLOCK lattice_cart

%BLOCK cell_constraints
      1   1   1
      0   0   0
%ENDBLOCK cell_constraints

%BLOCK positions_frac
   O              0.500000000000000       0.500000000000000       0.500000000000000
   Mg             0.000000000000000       0.000000000000000       0.000000000000000
%ENDBLOCK positions_frac

FIX_COM : true

%BLOCK species_pot
   O       /home/jkendric/Data/PseudoPotentials/O_01.recpot
   Mg      /home/jkendric/Data/PseudoPotentials/Mg_00.recpot
%ENDBLOCK species_pot

%BLOCK symmetry_ops
# Symm. op. 1       E
          1.000000000000000       0.000000000000000       0.000000000000000
          0.000000000000000       1.000000000000000       0.000000000000000
          0.000000000000000       0.000000000000000       1.000000000000000
          0.000000000000000       0.000000000000000       0.000000000000000
# Symm. op. 2       m
         -1.000000000000000       0.000000000000000       0.000000000000000
          0.000000000000000       1.000000000000000       0.000000000000000
          0.000000000000000       0.000000000000000       1.000000000000000
          0.000000000000000       0.000000000000000       0.000000000000000
# Symm. op. 3       2
          1.000000000000000       0.000000000000000       0.000000000000000
         -0.000000000000000      -1.000000000000000       0.000000000000000
         -0.000000000000000       0.000000000000000      -1.000000000000000
          0.000000000000000       0.000000000000000       0.000000000000000
# Symm. op. 4       2
         -1.000000000000000       0.000000000000000       0.000000000000000
         -0.000000000000000      -1.000000000000000       0.000000000000000
          0.000000000000000       0.000000000000000       1.000000000000000
          0.000000000000000       0.000000000000000       0.000000000000000
# Symm. op. 5       m
          1.000000000000000       0.000000000000000       0.000000000000000
         -0.000000000000000      -1.000000000000000       0.000000000000000
          0.000000000000000       0.000000000000000       1.000000000000000
          0.000000000000000       0.000000000000000       0.000000000000000
# Symm. op. 6       m
          1.000000000000000       0.000000000000000       0.000000000000000
          0.000000000000000       1.000000000000000       0.000000000000000
         -0.000000000000000       0.000000000000000      -1.000000000000000
          0.000000000000000       0.000000000000000       0.000000000000000
# Symm. op. 7       I
         -1.000000000000000       0.000000000000000       0.000000000000000
         -0.000000000000000      -1.000000000000000       0.000000000000000
         -0.000000000000000       0.000000000000000      -1.000000000000000
          0.000000000000000       0.000000000000000       0.000000000000000
# Symm. op. 8       2
         -1.000000000000000       0.000000000000000       0.000000000000000
          0.000000000000000       1.000000000000000       0.000000000000000
         -0.000000000000000       0.000000000000000      -1.000000000000000
          0.000000000000000       0.000000000000000       0.000000000000000
# Symm. op. 9       m
          1.000000000000000       0.000000000000000       0.000000000000000
          0.000000000000000       0.000000000000000       1.000000000000000
          0.000000000000000       1.000000000000000       0.000000000000000
          0.000000000000000       0.000000000000000       0.000000000000000
# Symm. op. 10      2
         -1.000000000000000       0.000000000000000       0.000000000000000
          0.000000000000000       0.000000000000000       1.000000000000000
          0.000000000000000       1.000000000000000       0.000000000000000
          0.000000000000000       0.000000000000000       0.000000000000000
# Symm. op. 11     -3
          0.000000000000000       1.000000000000000       0.000000000000000
          0.000000000000000       0.000000000000000       1.000000000000000
         -1.000000000000000       0.000000000000000       0.000000000000000
          0.000000000000000       0.000000000000000       0.000000000000000
# Symm. op. 12      4
          1.000000000000000       0.000000000000000       0.000000000000000
          0.000000000000000       0.000000000000000       1.000000000000000
         -0.000000000000000      -1.000000000000000       0.000000000000000
          0.000000000000000       0.000000000000000       0.000000000000000
# Symm. op. 13     -4
          0.000000000000000       1.000000000000000       0.000000000000000
         -1.000000000000000       0.000000000000000       0.000000000000000
         -0.000000000000000       0.000000000000000      -1.000000000000000
          0.000000000000000       0.000000000000000       0.000000000000000
# Symm. op. 14     -3
         -0.000000000000000      -1.000000000000000       0.000000000000000
         -0.000000000000000       0.000000000000000      -1.000000000000000
         -1.000000000000000       0.000000000000000       0.000000000000000
          0.000000000000000       0.000000000000000       0.000000000000000
# Symm. op. 15      2
          0.000000000000000       0.000000000000000       1.000000000000000
         -0.000000000000000      -1.000000000000000       0.000000000000000
          1.000000000000000       0.000000000000000       0.000000000000000
          0.000000000000000       0.000000000000000       0.000000000000000
# Symm. op. 16      m
         -0.000000000000000      -1.000000000000000       0.000000000000000
         -1.000000000000000       0.000000000000000       0.000000000000000
          0.000000000000000       0.000000000000000       1.000000000000000
          0.000000000000000       0.000000000000000       0.000000000000000
# Symm. op. 17      m
          0.000000000000000       1.000000000000000       0.000000000000000
          1.000000000000000       0.000000000000000       0.000000000000000
          0.000000000000000       0.000000000000000       1.000000000000000
          0.000000000000000       0.000000000000000       0.000000000000000
# Symm. op. 18      3
          0.000000000000000       0.000000000000000       1.000000000000000
          1.000000000000000       0.000000000000000       0.000000000000000
          0.000000000000000       1.000000000000000       0.000000000000000
          0.000000000000000       0.000000000000000       0.000000000000000
# Symm. op. 19      2
          0.000000000000000       1.000000000000000       0.000000000000000
          1.000000000000000       0.000000000000000       0.000000000000000
         -0.000000000000000       0.000000000000000      -1.000000000000000
          0.000000000000000       0.000000000000000       0.000000000000000
# Symm. op. 20      3
         -0.000000000000000       0.000000000000000      -1.000000000000000
          1.000000000000000       0.000000000000000       0.000000000000000
         -0.000000000000000      -1.000000000000000       0.000000000000000
          0.000000000000000       0.000000000000000       0.000000000000000
# Symm. op. 21      3
          0.000000000000000       1.000000000000000       0.000000000000000
          0.000000000000000       0.000000000000000       1.000000000000000
          1.000000000000000       0.000000000000000       0.000000000000000
          0.000000000000000       0.000000000000000       0.000000000000000
# Symm. op. 22      m
         -0.000000000000000       0.000000000000000      -1.000000000000000
          0.000000000000000       1.000000000000000       0.000000000000000
         -1.000000000000000       0.000000000000000       0.000000000000000
          0.000000000000000       0.000000000000000       0.000000000000000
# Symm. op. 23      3
          0.000000000000000       1.000000000000000       0.000000000000000
         -0.000000000000000       0.000000000000000      -1.000000000000000
         -1.000000000000000       0.000000000000000       0.000000000000000
          0.000000000000000       0.000000000000000       0.000000000000000
# Symm. op. 24      4
          0.000000000000000       0.000000000000000       1.000000000000000
          0.000000000000000       1.000000000000000       0.000000000000000
         -1.000000000000000       0.000000000000000       0.000000000000000
          0.000000000000000       0.000000000000000       0.000000000000000
# Symm. op. 25     -3
         -0.000000000000000      -1.000000000000000       0.000000000000000
          0.000000000000000       0.000000000000000       1.000000000000000
          1.000000000000000       0.000000000000000       0.000000000000000
          0.000000000000000       0.000000000000000       0.000000000000000
# Symm. op. 26      2
         -0.000000000000000       0.000000000000000      -1.000000000000000
         -0.000000000000000      -1.000000000000000       0.000000000000000
         -1.000000000000000       0.000000000000000       0.000000000000000
          0.000000000000000       0.000000000000000       0.000000000000000
# Symm. op. 27      4
          0.000000000000000       1.000000000000000       0.000000000000000
         -1.000000000000000       0.000000000000000       0.000000000000000
          0.000000000000000       0.000000000000000       1.000000000000000
          0.000000000000000       0.000000000000000       0.000000000000000
# Symm. op. 28      3
          0.000000000000000       0.000000000000000       1.000000000000000
         -1.000000000000000       0.000000000000000       0.000000000000000
         -0.000000000000000      -1.000000000000000       0.000000000000000
          0.000000000000000       0.000000000000000       0.000000000000000
# Symm. op. 29     -3
         -0.000000000000000       0.000000000000000      -1.000000000000000
         -1.000000000000000       0.000000000000000       0.000000000000000
         -0.000000000000000      -1.000000000000000       0.000000000000000
          0.000000000000000       0.000000000000000       0.000000000000000
# Symm. op. 30      4
         -0.000000000000000       0.000000000000000      -1.000000000000000
          0.000000000000000       1.000000000000000       0.000000000000000
          1.000000000000000       0.000000000000000       0.000000000000000
          0.000000000000000       0.000000000000000       0.000000000000000
# Symm. op. 31     -4
         -1.000000000000000       0.000000000000000       0.000000000000000
         -0.000000000000000       0.000000000000000      -1.000000000000000
          0.000000000000000       1.000000000000000       0.000000000000000
          0.000000000000000       0.000000000000000       0.000000000000000
# Symm. op. 32      m
          0.000000000000000       0.000000000000000       1.000000000000000
          0.000000000000000       1.000000000000000       0.000000000000000
          1.000000000000000       0.000000000000000       0.000000000000000
          0.000000000000000       0.000000000000000       0.000000000000000
# Symm. op. 33      4
          1.000000000000000       0.000000000000000       0.000000000000000
         -0.000000000000000       0.000000000000000      -1.000000000000000
          0.000000000000000       1.000000000000000       0.000000000000000
          0.000000000000000       0.000000000000000       0.000000000000000
# Symm. op. 34      m
          1.000000000000000       0.000000000000000       0.000000000000000
         -0.000000000000000       0.000000000000000      -1.000000000000000
         -0.000000000000000      -1.000000000000000       0.000000000000000
          0.000000000000000       0.000000000000000       0.000000000000000
# Symm. op. 35     -3
          0.000000000000000       0.000000000000000       1.000000000000000
         -1.000000000000000       0.000000000000000       0.000000000000000
          0.000000000000000       1.000000000000000       0.000000000000000
          0.000000000000000       0.000000000000000       0.000000000000000
# Symm. op. 36     -4
          0.000000000000000       0.000000000000000       1.000000000000000
         -0.000000000000000      -1.000000000000000       0.000000000000000
         -1.000000000000000       0.000000000000000       0.000000000000000
          0.000000000000000       0.000000000000000       0.000000000000000
# Symm. op. 37     -4
         -0.000000000000000       0.000000000000000      -1.000000000000000
         -0.000000000000000      -1.000000000000000       0.000000000000000
          1.000000000000000       0.000000000000000       0.000000000000000
          0.000000000000000       0.000000000000000       0.000000000000000
# Symm. op. 38      3
         -0.000000000000000      -1.000000000000000       0.000000000000000
         -0.000000000000000       0.000000000000000      -1.000000000000000
          1.000000000000000       0.000000000000000       0.000000000000000
          0.000000000000000       0.000000000000000       0.000000000000000
# Symm. op. 39     -3
          0.000000000000000       1.000000000000000       0.000000000000000
         -0.000000000000000       0.000000000000000      -1.000000000000000
          1.000000000000000       0.000000000000000       0.000000000000000
          0.000000000000000       0.000000000000000       0.000000000000000
# Symm. op. 40      3
         -0.000000000000000      -1.000000000000000       0.000000000000000
          0.000000000000000       0.000000000000000       1.000000000000000
         -1.000000000000000       0.000000000000000       0.000000000000000
          0.000000000000000       0.000000000000000       0.000000000000000
# Symm. op. 41     -4
         -1.000000000000000       0.000000000000000       0.000000000000000
          0.000000000000000       0.000000000000000       1.000000000000000
         -0.000000000000000      -1.000000000000000       0.000000000000000
          0.000000000000000       0.000000000000000       0.000000000000000
# Symm. op. 42     -3
          0.000000000000000       0.000000000000000       1.000000000000000
          1.000000000000000       0.000000000000000       0.000000000000000
         -0.000000000000000      -1.000000000000000       0.000000000000000
          0.000000000000000       0.000000000000000       0.000000000000000
# Symm. op. 43      2
         -0.000000000000000      -1.000000000000000       0.000000000000000
         -1.000000000000000       0.000000000000000       0.000000000000000
         -0.000000000000000       0.000000000000000      -1.000000000000000
          0.000000000000000       0.000000000000000       0.000000000000000
# Symm. op. 44      2
         -1.000000000000000       0.000000000000000       0.000000000000000
         -0.000000000000000       0.000000000000000      -1.000000000000000
         -0.000000000000000      -1.000000000000000       0.000000000000000
          0.000000000000000       0.000000000000000       0.000000000000000
# Symm. op. 45     -3
         -0.000000000000000       0.000000000000000      -1.000000000000000
          1.000000000000000       0.000000000000000       0.000000000000000
          0.000000000000000       1.000000000000000       0.000000000000000
          0.000000000000000       0.000000000000000       0.000000000000000
# Symm. op. 46      4
         -0.000000000000000      -1.000000000000000       0.000000000000000
          1.000000000000000       0.000000000000000       0.000000000000000
          0.000000000000000       0.000000000000000       1.000000000000000
          0.000000000000000       0.000000000000000       0.000000000000000
# Symm. op. 47      3
         -0.000000000000000       0.000000000000000      -1.000000000000000
         -1.000000000000000       0.000000000000000       0.000000000000000
          0.000000000000000       1.000000000000000       0.000000000000000
          0.000000000000000       0.000000000000000       0.000000000000000
# Symm. op. 48     -4
         -0.000000000000000      -1.000000000000000       0.000000000000000
          1.000000000000000       0.000000000000000       0.000000000000000
         -0.000000000000000       0.000000000000000      -1.000000000000000
          0.000000000000000       0.000000000000000       0.000000000000000
%ENDBLOCK symmetry_ops

kpoint_mp_grid :   11  11  11

%BLOCK PHONON_KPOINTS_LIST
0 0 0
%ENDBLOCK PHONON_KPOINTS_LIST

