Generated by cif2cell 1.1.0. k-space resolution ~0.2/A
 0
Gamma
11 11 6
0 0 0
